ITEM: TIMESTEP
0
ITEM: NUMBER OF ATOMS
32
ITEM: BOX BOUNDS pp pp pp
-24.218291063497695 24.218291063497695
-24.218291063497695 24.218291063497695
-24.218291063497695 24.218291063497695
ITEM: ATOMS id type xs ys zs
0 1 -22.617771 17.053814 4.684367
1 1 -22.617771 17.053814 2.979385
2 1 -22.617771 17.053814 0.411347
3 1 -22.617771 17.053814 -2.156691
4 1 -22.617771 17.053814 -4.625186
5 1 -22.617771 17.053814 -7.467347
6 1 -21.822193 -0.268201 -6.423016
7 1 -21.822193 -0.268201 -8.127998
8 1 -21.822193 -0.268201 -10.696036
9 1 -21.822193 -0.268201 -13.264074
10 1 -21.822193 -0.268201 -15.732569
11 1 -21.822193 -0.268201 -18.574730
12 1 3.914032 23.537441 -18.736548
13 1 3.914032 23.537441 -20.441530
14 1 3.914032 23.537441 -23.009568
15 1 3.914032 23.537441 -25.577606
16 1 3.914032 23.537441 -28.046101
17 1 3.914032 23.537441 -30.888261
18 1 17.002008 -21.251641 15.203621
19 1 7.002008 -21.251641 15.203621
20 1 -2.997992 -21.251641 15.203621
21 1 -12.997992 8.748359 15.203621
22 1 -12.997992 -1.251641 15.203621
23 1 -12.997992 -11.251641 15.203621
24 1 -42.997992 -21.251641 15.203621
25 1 -32.997992 -21.251641 15.203621
26 1 -22.997992 -21.251641 15.203621
27 1 -12.997992 -21.251641 15.203621
28 1 -12.997992 -11.251641 15.203621
29 1 -2.997992 -11.251641 15.203621
30 1 -12.997992 -1.251641 15.203621
31 1 -22.997992 -11.251641 15.203621
ITEM: TIMESTEP
1
ITEM: NUMBER OF ATOMS
32
ITEM: BOX BOUNDS pp pp pp
-24.218291063497695 24.218291063497695
-24.218291063497695 24.218291063497695
-24.218291063497695 24.218291063497695
ITEM: ATOMS id type xs ys zs
0 1 -10.259339 -15.680302 -0.397318
1 1 -11.267336 -15.810650 1.413482
2 1 -11.063891 -14.719699 4.148798
3 1 -9.342510 -14.067664 7.613030
4 1 -9.218087 -18.270961 11.233439
5 1 -10.712710 -16.143414 8.893424
6 1 -19.874070 11.806635 -20.784911
7 1 -20.918547 13.952047 -19.192806
8 1 -23.550119 14.575526 -18.749611
9 1 -22.170458 11.185363 -19.787036
10 1 -20.072826 9.497449 -19.223367
11 1 -14.839431 8.239168 -19.221935
12 1 -9.726726 -23.051637 -20.474450
13 1 -9.829278 -21.557486 -21.268691
14 1 -7.459449 -19.579336 -22.470465
15 1 -4.593368 -18.350209 -20.249683
16 1 -2.483489 -17.399225 -20.185495
17 1 -0.306386 -19.129532 -21.337872
18 1 19.287181 18.910979 12.987283
19 1 18.074779 19.947920 13.879920
20 1 15.654772 23.834776 15.197480
21 1 10.963323 -20.641449 22.667424
22 1 14.239369 -21.198545 22.239578
23 1 10.377105 -19.295340 23.960879
24 1 24.091796 22.854654 23.598309
25 1 21.825644 23.658998 21.632195
26 1 -19.135094 22.917217 20.522298
27 1 15.272606 -17.700178 14.613865
28 1 4.235660 5.636869 17.541439
29 1 5.422439 6.587827 17.928881
30 1 5.698399 10.334785 17.865845
31 1 4.026623 3.434830 18.363467
ITEM: TIMESTEP
2
ITEM: NUMBER OF ATOMS
32
ITEM: BOX BOUNDS pp pp pp
-24.218291063497695 24.218291063497695
-24.218291063497695 24.218291063497695
-24.218291063497695 24.218291063497695
ITEM: ATOMS id type xs ys zs
0 1 -11.405044 -16.416135 10.738758
1 1 -8.954818 -21.237299 10.455165
2 1 -8.365778 -20.953122 12.352529
3 1 -7.391109 -17.401706 11.741925
4 1 -4.932176 -17.466539 12.476284
5 1 -3.744971 -18.623325 15.254510
6 1 -14.642347 16.605012 22.732775
7 1 -13.043814 17.477756 24.131375
8 1 -14.849840 17.662697 23.249755
9 1 -17.410236 21.928327 -22.503671
10 1 -17.265921 19.191482 -23.587541
11 1 -17.460053 19.031745 -20.590088
12 1 -5.336441 -8.028100 -12.209526
13 1 -3.590234 -7.475914 -16.984047
14 1 -2.562732 -9.216274 -17.868973
15 1 -2.370825 -11.987101 -12.839309
16 1 -1.863705 -13.751690 -11.994869
17 1 -3.033867 -14.485431 -13.605739
18 1 0.197516 -18.140178 1.602257
19 1 1.498477 -17.862020 1.418690
20 1 8.378976 -18.338268 4.837444
21 1 7.267069 -23.945176 -12.900511
22 1 6.627025 -23.285055 -13.904566
23 1 8.687350 -22.086266 -16.834649
24 1 22.922753 -19.342308 13.382273
25 1 21.027182 -20.300621 14.016501
26 1 18.034114 21.315011 13.452808
27 1 16.581472 -19.696139 15.567738
28 1 -19.345527 -10.133961 -6.045259
29 1 -18.610315 -13.623101 -4.416442
30 1 -16.158138 -7.934817 -3.072816
31 1 -20.258256 -12.011767 -3.424248
ITEM: TIMESTEP
3
ITEM: NUMBER OF ATOMS
32
ITEM: BOX BOUNDS pp pp pp
-24.218291063497695 24.218291063497695
-24.218291063497695 24.218291063497695
-24.218291063497695 24.218291063497695
ITEM: ATOMS id type xs ys zs
0 1 -20.231984 23.229704 4.629543
1 1 -20.589341 -22.203141 6.742568
2 1 -18.479798 23.481380 5.762326
3 1 -16.786595 21.433393 6.367820
4 1 -15.972121 23.789139 8.496298
5 1 -15.319737 23.420583 5.636913
6 1 18.406086 5.284595 20.719960
7 1 15.222540 6.475515 -22.566651
8 1 17.355014 3.878789 -22.331480
9 1 17.300799 10.731129 -20.485106
10 1 18.193243 9.590823 -21.032117
11 1 20.311651 9.686681 -20.771482
12 1 0.764810 -14.131023 -11.125560
13 1 2.046964 -16.571071 -9.718029
14 1 1.242143 -18.378166 -10.016573
15 1 -3.321538 -15.514610 -9.417086
16 1 -5.060337 -16.569322 -9.633052
17 1 -7.829176 -19.992339 -12.880888
18 1 17.263429 -16.262886 -6.589169
19 1 15.924695 -15.529898 -5.339276
20 1 15.698719 -13.500467 2.179943
21 1 17.759663 -12.925031 7.086206
22 1 16.799205 -11.465791 5.690236
23 1 16.598592 -9.946415 9.178604
24 1 17.256300 -12.176998 1.865174
25 1 19.394712 -13.223834 5.159834
26 1 17.805110 -16.344669 6.369302
27 1 13.987369 -11.484440 7.633731
28 1 -14.834552 18.429703 5.859154
29 1 -17.343256 22.026002 5.017349
30 1 -14.609866 17.826634 7.357398
31 1 -13.851999 18.527926 6.511804
ITEM: TIMESTEP
4
ITEM: NUMBER OF ATOMS
32
ITEM: BOX BOUNDS pp pp pp
-24.218291063497695 24.218291063497695
-24.218291063497695 24.218291063497695
-24.218291063497695 24.218291063497695
ITEM: ATOMS id type xs ys zs
0 1 -13.405059 -20.104519 -0.897652
1 1 -9.230077 -20.245406 -3.628916
2 1 -10.290102 -18.026959 -1.762114
3 1 -11.108057 -18.325378 -4.005354
4 1 -8.698516 -17.767549 -3.826088
5 1 -7.169336 -20.195719 -5.495650
6 1 22.990730 4.478582 -22.372288
7 1 20.322915 2.585103 -20.374264
8 1 23.090787 5.045552 -18.483485
9 1 23.466880 7.131835 -19.637545
10 1 -23.237348 7.281196 -21.189279
11 1 21.820497 9.248905 -21.203573
12 1 -20.428886 -12.553773 -19.181177
13 1 -22.227845 -11.419460 -20.239111
14 1 -22.384097 -11.380639 -17.278582
15 1 -23.309009 -6.286077 -20.522923
16 1 22.193949 -7.261029 -15.653436
17 1 22.615947 -3.921996 -16.155289
18 1 -22.462858 -14.726851 20.010933
19 1 23.196622 -13.749980 17.426638
20 1 23.302246 -11.738712 16.023453
21 1 9.035976 -3.887018 3.076926
22 1 9.469168 -5.138366 1.625416
23 1 11.521690 -5.387005 6.992747
24 1 -23.755515 -4.435308 6.776421
25 1 24.213711 -3.701873 8.950449
26 1 -23.247623 -6.756830 9.139526
27 1 18.229679 -11.934603 15.552370
28 1 -11.044483 -18.853765 -2.456928
29 1 -9.957019 -18.294945 -3.232384
30 1 -10.596506 -17.895040 -2.587084
31 1 -9.854267 -19.012476 -3.002997
ITEM: TIMESTEP
5
ITEM: NUMBER OF ATOMS
32
ITEM: BOX BOUNDS pp pp pp
-24.218291063497695 24.218291063497695
-24.218291063497695 24.218291063497695
-24.218291063497695 24.218291063497695
ITEM: ATOMS id type xs ys zs
0 1 -21.434443 -20.131185 -9.778123
1 1 -19.429698 -20.029584 -6.938943
2 1 -17.634579 -20.381766 -4.815228
3 1 -17.609185 -17.388694 -8.942151
4 1 -15.102717 -18.180151 -6.902982
5 1 -15.269157 -18.740882 -8.729493
6 1 14.445259 10.262482 13.830446
7 1 10.000406 6.999624 14.539155
8 1 9.893296 6.855265 11.745325
9 1 6.574444 8.949110 11.326913
10 1 7.767426 7.821378 13.084548
11 1 9.836887 8.857533 10.493609
12 1 -10.576049 5.950843 -20.989769
13 1 -13.723794 3.614373 -18.644166
14 1 -16.446270 2.006476 -18.833024
15 1 -13.278058 1.610324 -18.958236
16 1 -11.357228 -1.002587 -20.869682
17 1 -15.119029 -1.334295 -21.291088
18 1 23.173810 -7.438805 19.058095
19 1 21.294879 -6.716416 18.791446
20 1 21.411808 -2.703976 13.810573
21 1 17.635129 -9.365439 14.637220
22 1 14.635927 -9.010146 14.591831
23 1 15.609967 -11.731619 15.240007
24 1 13.994195 13.452242 14.112037
25 1 14.339076 13.329784 16.240236
26 1 13.171212 12.986139 11.394147
27 1 14.190760 -3.709422 6.707262
28 1 -17.440105 -20.488578 -6.841600
29 1 -16.054001 -18.170828 -9.326087
30 1 -19.063529 -21.756487 -5.103273
31 1 -19.247401 -18.311086 -7.175575
ITEM: TIMESTEP
6
ITEM: NUMBER OF ATOMS
32
ITEM: BOX BOUNDS pp pp pp
-24.218291063497695 24.218291063497695
-24.218291063497695 24.218291063497695
-24.218291063497695 24.218291063497695
ITEM: ATOMS id type xs ys zs
0 1 -1.867138 -18.833687 7.176976
1 1 0.350217 -19.735252 4.174707
2 1 -1.350698 -18.175460 4.215256
3 1 1.400297 -15.844041 2.307372
4 1 1.164370 -16.924859 6.874131
5 1 4.960211 -17.644493 3.706523
6 1 23.221789 7.715279 1.096943
7 1 19.130338 6.831329 2.765514
8 1 19.058300 6.281602 0.703100
9 1 14.950612 8.412722 2.664105
10 1 12.310639 10.077661 2.060019
11 1 7.873396 7.590379 -1.216785
12 1 23.154247 -14.412718 0.996622
13 1 -22.897723 -11.729010 -2.463538
14 1 -22.489219 -10.116046 -3.660460
15 1 -22.290995 -6.486040 -4.173499
16 1 23.732004 -7.000717 -4.820423
17 1 -24.138795 -4.739902 -2.546053
18 1 20.128456 -4.153583 10.798807
19 1 20.888578 -4.421943 8.042470
20 1 20.338052 -5.762942 12.123740
21 1 23.580281 -9.607698 16.701649
22 1 22.030769 -10.559437 16.142615
23 1 22.635077 -14.993991 12.861687
24 1 21.582583 4.281914 12.798946
25 1 22.567506 2.724692 11.178791
26 1 17.236459 3.542871 11.497592
27 1 19.637873 -4.939244 17.071528
28 1 0.497102 -17.968882 4.255778
29 1 1.236597 -14.177870 3.794684
30 1 -0.584164 -17.469222 3.450817
31 1 1.600216 -18.771908 4.353096
ITEM: TIMESTEP
7
ITEM: NUMBER OF ATOMS
32
ITEM: BOX BOUNDS pp pp pp
-24.218291063497695 24.218291063497695
-24.218291063497695 24.218291063497695
-24.218291063497695 24.218291063497695
ITEM: ATOMS id type xs ys zs
0 1 -22.402372 23.752407 -6.855286
1 1 -21.155765 23.722329 -5.325388
2 1 -21.164013 21.899598 -6.324901
3 1 -23.273065 23.085805 -4.795307
4 1 -22.619822 -23.049523 -4.307601
5 1 22.838669 -23.106206 -1.258356
6 1 20.171476 14.599007 9.016335
7 1 21.568368 13.352870 10.529429
8 1 20.910334 16.237766 10.063462
9 1 18.162641 19.443520 7.266228
10 1 16.595101 19.004500 7.890948
11 1 17.303196 20.817417 5.532787
12 1 20.817627 -13.836822 13.838121
13 1 20.386852 -8.898027 11.196033
14 1 20.781374 -6.619368 12.219548
15 1 20.886279 -10.167079 9.422584
16 1 22.337504 -14.250391 9.162649
17 1 22.824590 -11.513569 9.402409
18 1 21.435524 0.528953 8.179740
19 1 21.909965 2.408477 8.735797
20 1 -21.828611 4.556579 9.984025
21 1 -19.292369 -8.726645 10.669571
22 1 -20.543106 -9.506764 11.677730
23 1 -19.012770 -10.964040 13.354864
24 1 -18.301833 5.255125 15.011984
25 1 -19.684736 5.429891 13.881734
26 1 -20.689439 3.646689 17.505349
27 1 -20.647575 1.008029 15.484515
28 1 -22.238808 19.551315 -3.206186
29 1 -21.911564 22.939334 -4.016328
30 1 -21.603599 20.926993 -4.623729
31 1 -20.857524 21.896868 -4.522743
ITEM: TIMESTEP
8
ITEM: NUMBER OF ATOMS
32
ITEM: BOX BOUNDS pp pp pp
-24.218291063497695 24.218291063497695
-24.218291063497695 24.218291063497695
-24.218291063497695 24.218291063497695
ITEM: ATOMS id type xs ys zs
0 1 -23.274046 21.040192 -2.177665
1 1 -23.041478 23.960205 0.677848
2 1 -20.529504 -23.737447 0.562936
3 1 23.834902 -21.475183 1.976539
4 1 -23.993252 -21.873902 -1.874873
5 1 -23.330163 -22.205932 -5.099236
6 1 -16.873665 18.949619 15.170777
7 1 -16.903147 15.795296 7.817855
8 1 -17.011298 16.854306 5.439655
9 1 -19.356261 17.307353 7.573530
10 1 -20.881397 17.769481 4.784330
11 1 -20.856415 20.309435 5.717350
12 1 14.157861 -1.350647 15.587715
13 1 13.101621 -5.442429 18.220748
14 1 14.605762 -3.818870 19.309159
15 1 15.465900 -8.336689 19.043773
16 1 16.373276 -10.467778 19.960709
17 1 17.065747 -14.685717 19.514428
18 1 -20.332759 -13.631122 13.425161
19 1 -19.740155 -13.091249 16.237076
20 1 -15.643169 -12.716461 18.740089
21 1 -8.715690 -10.327719 13.468474
22 1 -8.982784 -8.212417 13.248250
23 1 -11.145830 -8.868079 10.909558
24 1 -10.484368 5.710076 22.690397
25 1 -12.151945 3.963301 21.412806
26 1 -13.979791 0.240855 22.420634
27 1 -12.923476 -4.477134 11.821806
28 1 23.706487 -22.759696 -1.352832
29 1 23.724132 -22.343290 -0.288634
30 1 -22.377385 23.589494 -0.068044
31 1 -22.947633 22.902523 -1.059429
ITEM: TIMESTEP
9
ITEM: NUMBER OF ATOMS
32
ITEM: BOX BOUNDS pp pp pp
-24.218291063497695 24.218291063497695
-24.218291063497695 24.218291063497695
-24.218291063497695 24.218291063497695
ITEM: ATOMS id type xs ys zs
0 1 -15.865426 16.343228 2.905888
1 1 -11.859356 15.728296 0.762428
2 1 -10.944951 14.724182 1.070570
3 1 -8.455128 15.993473 1.950601
4 1 -9.146324 15.356002 -0.983888
5 1 -8.226308 15.668913 -4.438605
6 1 -10.935689 11.881471 14.981152
7 1 -10.601057 12.987626 14.869194
8 1 -8.500252 13.110543 15.142436
9 1 -9.995566 14.433109 11.017295
10 1 -11.543439 13.871418 9.204378
11 1 -12.648763 8.953549 11.995443
12 1 13.523363 -14.916925 15.676339
13 1 14.755762 -13.035703 12.059793
14 1 16.431336 -11.550472 13.970147
15 1 16.865462 -15.490139 11.775120
16 1 13.679398 -14.859008 15.065515
17 1 10.950940 -11.875238 9.510695
18 1 -23.022540 -21.498475 -21.396062
19 1 -23.214624 -20.218020 -20.110884
20 1 -21.261252 -20.819170 21.162817
21 1 20.684414 -7.768670 9.585859
22 1 23.076618 -8.195928 11.012862
23 1 -21.183757 -11.445376 14.936106
24 1 -22.044371 -10.859822 11.044098
25 1 -19.939386 -11.176572 12.122934
26 1 -16.434788 -12.868536 14.751084
27 1 -12.375176 -15.774502 21.984678
28 1 -11.364745 16.256071 1.126614
29 1 -9.592259 16.182169 3.588497
30 1 -11.473413 14.454897 0.233862
31 1 -12.574696 15.567775 1.637258
ITEM: TIMESTEP
10
ITEM: NUMBER OF ATOMS
32
ITEM: BOX BOUNDS pp pp pp
-24.218291063497695 24.218291063497695
-24.218291063497695 24.218291063497695
-24.218291063497695 24.218291063497695
ITEM: ATOMS id type xs ys zs
0 1 -17.685597 13.725598 1.356224
1 1 -16.439803 15.861302 0.846898
2 1 -17.404678 16.555354 -1.996880
3 1 -14.830284 17.963511 0.140164
4 1 -12.442818 18.120377 1.313436
5 1 -13.195629 18.273874 7.379288
6 1 -13.570362 9.524681 21.641979
7 1 -10.750707 6.485916 20.710730
8 1 -12.380441 5.391702 19.919076
9 1 -17.054688 7.662924 16.808685
10 1 -13.904729 7.435409 15.912825
11 1 -16.386644 8.975982 14.281174
12 1 -20.165333 -23.518672 22.858849
13 1 -18.940355 -23.464562 20.845651
14 1 -16.804539 24.171506 19.945683
15 1 -16.599485 -21.841257 23.447443
16 1 -16.900044 -18.397265 23.590663
17 1 -12.446324 -17.202263 22.769193
18 1 12.067772 -11.352186 2.986818
19 1 13.376732 -11.074491 3.855702
20 1 17.001808 -14.681345 5.087782
21 1 11.282323 -12.863785 4.687513
22 1 10.271651 -11.748044 5.592745
23 1 9.592161 -16.430345 10.434502
24 1 -20.709092 -18.573350 16.344028
25 1 -21.994467 -18.717546 13.258173
26 1 -23.777478 -14.168644 17.618489
27 1 21.684246 -8.693695 10.477460
28 1 -15.698565 17.197387 1.325420
29 1 -15.710504 18.250794 0.305231
30 1 -17.675531 16.451050 -0.081531
31 1 -14.866614 17.334409 0.451424
ITEM: TIMESTEP
11
ITEM: NUMBER OF ATOMS
32
ITEM: BOX BOUNDS pp pp pp
-24.218291063497695 24.218291063497695
-24.218291063497695 24.218291063497695
-24.218291063497695 24.218291063497695
ITEM: ATOMS id type xs ys zs
0 1 -21.256518 20.501927 -5.586107
1 1 -20.651986 15.757666 -4.538995
2 1 -18.082702 17.550347 -6.819786
3 1 -19.506613 19.133609 -6.667574
4 1 -22.391981 18.830177 -5.934704
5 1 -23.507927 17.265754 -8.076798
6 1 -19.864745 3.710195 4.700733
7 1 -22.909662 6.267661 5.676643
8 1 -23.765588 3.581445 6.134427
9 1 -19.691105 4.942985 4.130198
10 1 -16.556413 6.214413 3.457719
11 1 -14.775822 7.152529 3.792292
12 1 -17.253005 -13.163812 -23.876071
13 1 -17.777447 -11.618886 23.218380
14 1 -18.104550 -9.035605 22.297133
15 1 -19.589283 -6.541410 23.227335
16 1 -19.554558 -8.327809 23.521789
17 1 -16.142537 -9.014055 -22.537549
18 1 -20.675565 -16.809192 12.058308
19 1 -19.948371 -16.643901 12.799630
20 1 -22.499563 -17.765369 10.479053
21 1 -21.894662 -7.311105 15.840348
22 1 -21.136944 -8.656387 14.129477
23 1 -23.785179 -9.478771 14.268830
24 1 22.230509 -9.895320 8.052509
25 1 23.952581 -10.290632 8.203228
26 1 -21.171590 -12.192735 9.792941
27 1 -20.121366 -14.809188 14.813171
28 1 -18.705879 17.100446 -5.693629
29 1 -20.128683 19.415938 -7.766317
30 1 -18.634991 16.624827 -5.615139
31 1 -20.906256 15.316460 -4.935510
ITEM: TIMESTEP
12
ITEM: NUMBER OF ATOMS
32
ITEM: BOX BOUNDS pp pp pp
-24.218291063497695 24.218291063497695
-24.218291063497695 24.218291063497695
-24.218291063497695 24.218291063497695
ITEM: ATOMS id type xs ys zs
0 1 -21.928865 -16.629587 5.483877
1 1 -23.073587 -22.469636 2.859043
2 1 -21.374799 -23.993556 3.100541
3 1 -22.775881 21.717278 3.452453
4 1 23.021305 23.306857 4.844997
5 1 22.675136 21.573543 2.366128
6 1 13.672489 7.841747 4.542356
7 1 15.223283 8.428826 0.618702
8 1 12.632562 6.777093 1.432445
9 1 13.123795 10.067433 4.131427
10 1 15.974760 10.895672 5.628952
11 1 19.126168 14.063146 3.924213
12 1 16.504126 -0.009005 -17.423084
13 1 15.145797 0.471058 -15.183253
14 1 17.316341 3.137989 -15.700390
15 1 15.917500 1.765866 -18.188331
16 1 17.965832 4.982360 -19.888120
17 1 20.937157 2.414600 -18.403144
18 1 -16.639161 -0.256119 19.789122
19 1 -16.680173 -0.717838 19.206978
20 1 -19.071082 -0.214283 20.321172
21 1 15.948564 -2.926195 22.272661
22 1 16.560977 -1.895337 22.956075
23 1 14.768165 0.650902 23.037603
24 1 0.212902 1.850401 13.819284
25 1 -0.969548 -0.519683 13.766560
26 1 -7.434127 -4.237492 15.427817
27 1 -16.984173 -5.815749 20.970280
28 1 -20.931319 22.895514 4.346675
29 1 -23.563141 22.866610 2.549058
30 1 -20.109744 23.451406 3.044710
31 1 -22.572536 -23.392904 3.476941
ITEM: TIMESTEP
13
ITEM: NUMBER OF ATOMS
32
ITEM: BOX BOUNDS pp pp pp
-24.218291063497695 24.218291063497695
-24.218291063497695 24.218291063497695
-24.218291063497695 24.218291063497695
ITEM: ATOMS id type xs ys zs
0 1 -22.927391 -16.856860 -7.407792
1 1 23.783198 -16.014252 -10.080752
2 1 23.036390 -14.347157 -7.956272
3 1 24.047090 -16.995985 -5.322631
4 1 -24.206332 -13.131624 -6.999321
5 1 -21.718949 -15.457709 -3.747646
6 1 -23.732895 9.470725 -12.763183
7 1 -23.500605 8.910554 -7.132717
8 1 -22.344380 9.444962 -10.139965
9 1 -21.349965 5.257158 -12.348752
10 1 -20.598328 6.207847 -14.778152
11 1 -22.921252 2.284443 -14.364483
12 1 11.876134 -1.817551 18.940929
13 1 13.140175 -1.274626 19.759869
14 1 14.667638 1.545528 18.643748
15 1 18.699995 1.542361 21.190383
16 1 18.422552 0.669536 -23.655726
17 1 15.648882 2.554539 -23.969421
18 1 12.886376 2.323477 1.272418
19 1 14.500107 3.475631 -0.154031
20 1 18.867820 2.114082 -1.240333
21 1 16.755379 11.814231 11.203933
22 1 14.111059 10.538638 9.960255
23 1 19.026159 11.044818 11.082216
24 1 13.817559 -3.700809 7.072128
25 1 13.409475 -2.567965 6.330967
26 1 14.504481 -7.130933 3.263205
27 1 23.284341 1.637771 11.702804
28 1 23.507313 -16.606704 -7.917620
29 1 23.349539 -16.993866 -3.836011
30 1 22.007953 -15.301132 -9.784048
31 1 23.526495 -15.211658 -7.996065
ITEM: TIMESTEP
14
ITEM: NUMBER OF ATOMS
32
ITEM: BOX BOUNDS pp pp pp
-24.218291063497695 24.218291063497695
-24.218291063497695 24.218291063497695
-24.218291063497695 24.218291063497695
ITEM: ATOMS id type xs ys zs
0 1 22.526859 -16.937671 -14.594348
1 1 -22.303249 -14.331553 -13.903709
2 1 -23.225551 -18.328539 -13.714187
3 1 -23.525896 -19.021015 -16.437355
4 1 -21.809802 -20.491238 -14.661215
5 1 -22.200128 -22.902846 -17.275229
6 1 23.399698 -10.288657 -15.004312
7 1 -21.717506 -9.220939 -13.902913
8 1 -22.732715 -11.336956 -15.725900
9 1 -21.142982 -18.633452 -15.441821
10 1 -21.075589 -19.631694 -12.648031
11 1 -18.392024 -21.417570 -14.409773
12 1 8.426765 6.799875 6.419611
13 1 9.251047 6.697626 4.563859
14 1 8.639971 4.920763 2.164471
15 1 4.450704 2.279356 4.386751
16 1 6.083323 3.736177 2.877001
17 1 4.513209 2.778827 -0.497438
18 1 19.346688 20.078255 5.763167
19 1 19.415158 19.131928 4.279747
20 1 15.793472 16.661408 3.066323
21 1 18.653157 11.673440 8.602581
22 1 20.176568 12.423736 10.264711
23 1 22.468206 16.771627 4.625670
24 1 -18.526308 7.957420 2.006149
25 1 -19.847234 9.685805 1.135557
26 1 -23.954507 13.816996 -0.847083
27 1 18.156105 12.338786 3.873910
28 1 -22.501118 -17.849253 -13.685702
29 1 -22.988074 -18.014354 -15.622877
30 1 22.842749 -17.896523 -13.835477
31 1 -22.602376 -18.837053 -15.134053
ITEM: TIMESTEP
15
ITEM: NUMBER OF ATOMS
32
ITEM: BOX BOUNDS pp pp pp
-24.218291063497695 24.218291063497695
-24.218291063497695 24.218291063497695
-24.218291063497695 24.218291063497695
ITEM: ATOMS id type xs ys zs
0 1 -12.389158 -18.452624 -7.356747
1 1 -9.947913 -21.306788 -7.903530
2 1 -8.997774 -18.252365 -7.680536
3 1 -7.153554 -17.839529 -2.555367
4 1 -7.652964 -17.291825 1.334372
5 1 -5.700029 -18.320927 -0.243963
6 1 -12.934286 -13.353631 -7.867782
7 1 -12.239212 -11.252268 -6.636535
8 1 -13.391275 -8.736204 -5.372506
9 1 -11.585622 -14.167592 -6.456442
10 1 -14.226278 -15.677537 -8.592741
11 1 -11.225163 -15.744627 -9.186917
12 1 13.708043 5.410613 -12.813441
13 1 8.458432 2.880973 -11.653944
14 1 9.502533 3.448643 -13.483900
15 1 12.612496 2.867090 -5.828348
16 1 10.500041 5.742298 -2.981200
17 1 14.706438 2.860729 -0.985280
18 1 23.843292 6.132778 4.772210
19 1 23.206676 8.449115 3.162270
20 1 -20.511135 11.396154 -1.182670
21 1 19.903704 9.365298 -8.746164
22 1 17.893803 10.282877 -8.800747
23 1 17.987423 17.519823 -7.328869
24 1 15.538563 -2.463678 9.744733
25 1 16.771809 -2.401060 8.361396
26 1 13.948515 -2.891565 9.203251
27 1 -23.695953 8.703774 -2.225267
28 1 -8.490690 -17.427331 -4.207572
29 1 -8.679386 -16.837221 -0.786642
30 1 -7.963310 -18.185339 -7.780636
31 1 -11.591534 -15.074473 -6.378553
ITEM: TIMESTEP
16
ITEM: NUMBER OF ATOMS
32
ITEM: BOX BOUNDS pp pp pp
-24.218291063497695 24.218291063497695
-24.218291063497695 24.218291063497695
-24.218291063497695 24.218291063497695
ITEM: ATOMS id type xs ys zs
0 1 -14.726032 21.271533 0.214619
1 1 -11.417171 23.607605 -0.379231
2 1 -11.474847 21.998123 0.520148
3 1 -13.405404 20.491348 0.591097
4 1 -13.138801 19.630461 2.328703
5 1 -11.073254 19.542347 0.959372
6 1 -10.798861 -21.589113 3.262342
7 1 -11.773354 -21.129678 0.392765
8 1 -12.021478 -20.676726 3.360220
9 1 -14.642939 -24.021672 -0.253147
10 1 -13.614438 23.115408 -1.752853
11 1 -7.574437 -24.133469 0.695825
12 1 13.970635 -23.801686 -4.885684
13 1 14.867591 22.582208 -2.827605
14 1 16.244906 22.999565 -6.271679
15 1 16.854311 -23.393761 -8.108671
16 1 19.592379 -23.472360 -11.886478
17 1 23.638388 -20.151541 -13.593348
18 1 13.571309 1.933234 3.103045
19 1 11.548323 -0.523254 4.949435
20 1 16.311392 -2.647296 4.870713
21 1 -20.158423 20.482581 -6.545507
22 1 -19.169902 22.564312 -6.988020
23 1 -16.882313 -19.146234 -5.721464
24 1 15.514546 0.718578 8.597817
25 1 16.458610 -2.055960 7.735370
26 1 15.193908 -0.384882 3.044782
27 1 15.091051 -7.485321 -0.281140
28 1 -12.624292 22.840289 -0.036230
29 1 -13.425200 22.826291 -0.830416
30 1 -12.188092 22.534355 1.245045
31 1 -15.769839 -22.749669 1.575477
ITEM: TIMESTEP
17
ITEM: NUMBER OF ATOMS
32
ITEM: BOX BOUNDS pp pp pp
-24.218291063497695 24.218291063497695
-24.218291063497695 24.218291063497695
-24.218291063497695 24.218291063497695
ITEM: ATOMS id type xs ys zs
0 1 -4.851313 -20.872566 -5.685099
1 1 -4.474758 -22.384198 -2.896098
2 1 -5.146930 -20.549867 -0.823368
3 1 -6.368276 -16.403837 -1.543964
4 1 -9.759282 -16.455834 -0.079032
5 1 -13.115522 -12.187205 1.018400
6 1 -22.710036 -21.752727 19.085929
7 1 -20.855168 -21.467426 21.276152
8 1 -20.270028 -21.656370 18.632054
9 1 -17.001646 -21.197492 22.199057
10 1 -14.779773 -17.943299 18.122213
11 1 -17.147870 -21.063443 18.738173
12 1 -17.683922 -18.468974 21.114749
13 1 -14.422912 -21.557264 24.134594
14 1 -15.906689 -20.383311 -22.449080
15 1 -15.778262 -17.279560 -22.974579
16 1 -20.728670 -15.775364 -20.629753
17 1 -23.282957 -19.568308 -19.927647
18 1 23.933670 -18.906513 9.448015
19 1 23.191310 -17.260954 11.123364
20 1 -22.060935 -19.676336 14.107688
21 1 11.294450 -23.216375 8.253152
22 1 13.133531 -23.848324 7.546209
23 1 14.807857 -19.535770 6.156830
24 1 21.756649 -3.137030 10.977293
25 1 21.347864 -5.165247 8.032940
26 1 23.861888 -5.989799 8.555739
27 1 17.161033 -15.395026 12.093982
28 1 -5.581981 -21.761981 -1.533060
29 1 -6.193021 -18.347636 -1.817630
30 1 -6.707593 -20.726525 -1.080268
31 1 -2.963183 -22.946096 -3.824714
ITEM: TIMESTEP
18
ITEM: NUMBER OF ATOMS
32
ITEM: BOX BOUNDS pp pp pp
-24.218291063497695 24.218291063497695
-24.218291063497695 24.218291063497695
-24.218291063497695 24.218291063497695
ITEM: ATOMS id type xs ys zs
0 1 -11.306310 -22.980513 -11.204462
1 1 -10.967482 -21.387228 -12.315802
2 1 -9.876040 -22.653455 -10.670179
3 1 -11.782891 -20.182885 -9.357677
4 1 -14.566321 -22.250510 -7.714883
5 1 -12.395850 -20.443639 -6.096492
6 1 13.715690 7.553486 3.559828
7 1 14.362688 9.929589 6.388679
8 1 14.732864 11.731878 4.716200
9 1 14.532152 6.623016 4.730975
10 1 12.341505 8.768501 1.972500
11 1 11.972676 13.422903 1.245479
12 1 -10.316124 21.039234 22.959548
13 1 -8.004263 22.218227 19.883103
14 1 -8.259559 21.827173 15.932212
15 1 -10.312990 -21.418954 16.825973
16 1 -8.939821 -21.665123 14.389457
17 1 -7.086400 -20.227815 15.423437
18 1 6.121474 -3.638061 15.931184
19 1 4.273981 -2.836091 18.125639
20 1 10.092125 -5.532448 13.892413
21 1 11.766715 -13.169256 9.700941
22 1 13.896922 -14.676780 9.047393
23 1 16.578752 -14.029599 6.794889
24 1 13.903069 -10.802731 1.120254
25 1 13.248797 -12.737836 1.715873
26 1 10.342450 -11.784880 6.755454
27 1 22.214660 -10.779306 7.896238
28 1 -10.057435 -20.591046 -11.525841
29 1 -11.868250 -21.818781 -10.991799
30 1 -9.926773 -21.938130 -10.894901
31 1 -10.228457 -23.544511 -10.636784
ITEM: TIMESTEP
19
ITEM: NUMBER OF ATOMS
32
ITEM: BOX BOUNDS pp pp pp
-24.218291063497695 24.218291063497695
-24.218291063497695 24.218291063497695
-24.218291063497695 24.218291063497695
ITEM: ATOMS id type xs ys zs
0 1 -4.128172 18.996266 0.006106
1 1 -3.236033 21.701153 -0.976763
2 1 -1.075891 23.638422 -2.174050
3 1 0.737423 22.308828 -2.989945
4 1 -4.849202 22.773595 -3.091614
5 1 -7.058490 23.194888 -5.304289
6 1 1.929243 2.815551 4.671985
7 1 3.358889 1.432229 1.234577
8 1 4.234435 1.923920 3.200010
9 1 9.049118 1.738217 2.407881
10 1 12.076869 0.617984 1.520622
11 1 10.339399 -2.295824 -1.004347
12 1 -20.709912 -10.096636 13.594530
13 1 -18.517316 -9.789134 14.276738
14 1 -17.439241 -10.821698 12.391037
15 1 -12.588156 -10.342518 10.847524
16 1 -9.578415 -11.322730 9.797755
17 1 -5.973433 -7.872365 9.103701
18 1 -22.838554 -15.515392 13.186877
19 1 -22.934430 -14.898636 10.976904
20 1 24.035589 -13.476756 6.964608
21 1 22.237430 -3.648792 -1.363392
22 1 23.087796 -2.212297 -0.689684
23 1 -20.998710 0.911905 -2.975999
24 1 22.411556 -2.549997 1.849960
25 1 22.548436 -2.285796 3.877838
26 1 -20.636630 -3.909569 -1.908515
27 1 -14.016614 -4.804375 8.175165
28 1 -0.334346 22.883227 -0.903287
29 1 0.505743 22.662298 -5.279762
30 1 -1.675799 23.955856 0.041812
31 1 -1.674912 23.226341 -1.048780
ITEM: TIMESTEP
20
ITEM: NUMBER OF ATOMS
32
ITEM: BOX BOUNDS pp pp pp
-24.218291063497695 24.218291063497695
-24.218291063497695 24.218291063497695
-24.218291063497695 24.218291063497695
ITEM: ATOMS id type xs ys zs
0 1 -16.738424 22.046260 11.486542
1 1 -16.861185 17.379439 7.570098
2 1 -17.343669 18.054488 4.996823
3 1 -16.304708 20.044384 3.353213
4 1 -17.039302 16.936308 0.342526
5 1 -17.769816 21.320458 -0.134037
6 1 -13.604286 -3.923170 2.532990
7 1 -15.259625 -5.789864 4.060577
8 1 -15.654763 -2.970053 4.342462
9 1 -15.317111 -0.113281 4.495512
10 1 -14.067398 -4.538060 6.213744
11 1 -14.300266 -1.878874 7.729471
12 1 -5.177920 -15.633077 4.960518
13 1 -3.712230 -12.184226 6.294038
14 1 -5.925473 -13.435512 4.497944
15 1 -6.561801 -14.931644 6.466482
16 1 -9.078357 -14.263848 5.250787
17 1 -10.572316 -12.002977 4.761893
18 1 14.043449 -1.248928 2.495657
19 1 14.760860 -2.337440 4.091515
20 1 20.611244 -8.240889 5.066180
21 1 -21.457855 -5.476888 17.196410
22 1 -22.240822 -5.902921 14.598321
23 1 -23.290159 -3.211430 10.980714
24 1 21.130424 -5.627805 12.373459
25 1 21.009292 -8.019388 11.304695
26 1 23.001478 -8.495824 10.655564
27 1 19.446130 -5.019139 7.853599
28 1 -16.355300 19.861567 4.752231
29 1 -17.745994 21.391327 3.256107
30 1 -16.854043 18.292537 5.360411
31 1 -17.961257 17.709226 6.326296
ITEM: TIMESTEP
21
ITEM: NUMBER OF ATOMS
32
ITEM: BOX BOUNDS pp pp pp
-24.218291063497695 24.218291063497695
-24.218291063497695 24.218291063497695
-24.218291063497695 24.218291063497695
ITEM: ATOMS id type xs ys zs
0 1 -8.711186 18.572482 -3.069246
1 1 -10.185562 17.932639 -0.098691
2 1 -12.282976 19.233285 1.883560
3 1 -11.704799 22.653752 4.261506
4 1 -13.209522 17.945634 3.368839
5 1 -15.136569 18.256038 0.817849
6 1 19.510769 4.987220 8.963819
7 1 16.862420 -0.901333 8.690583
8 1 17.554395 -2.205961 9.287188
9 1 17.784606 -1.503354 5.140565
10 1 18.141431 -4.436237 5.633694
11 1 16.587558 -6.995239 6.173408
12 1 -11.717661 -21.599844 -10.961873
13 1 -10.915524 -21.423263 -8.042245
14 1 -11.290980 -18.751336 -7.613910
15 1 -14.281146 -17.442280 -10.270346
16 1 -17.205012 -16.054625 -13.465049
17 1 -18.385256 -17.633532 -15.272035
18 1 -13.490595 2.174398 10.539493
19 1 -14.046494 4.117357 10.218914
20 1 -20.917371 4.312193 11.737133
21 1 20.207074 -3.443424 14.643729
22 1 19.126270 -5.820053 15.599129
23 1 23.247233 -0.393095 17.880845
24 1 24.131703 -14.460947 10.571854
25 1 20.790855 -15.460888 12.397486
26 1 -23.698137 -10.806189 15.110135
27 1 -21.474023 -6.424168 13.034314
28 1 -9.934153 20.614461 0.252917
29 1 -10.061635 21.261659 5.290758
30 1 -11.851660 20.329530 0.972470
31 1 -9.940736 18.674024 -1.720079
ITEM: TIMESTEP
22
ITEM: NUMBER OF ATOMS
32
ITEM: BOX BOUNDS pp pp pp
-24.218291063497695 24.218291063497695
-24.218291063497695 24.218291063497695
-24.218291063497695 24.218291063497695
ITEM: ATOMS id type xs ys zs
0 1 -4.712129 10.981300 18.760020
1 1 -7.945935 10.541776 17.254225
2 1 -6.993448 10.443443 14.047778
3 1 -5.975979 8.407940 15.329284
4 1 -6.401232 6.177805 12.552708
5 1 -2.928379 4.576464 12.253915
6 1 -20.415966 -4.793296 21.788082
7 1 -19.236021 -3.856492 21.845085
8 1 -19.009302 -5.153848 -23.391437
9 1 -18.730007 -8.625091 -18.076524
10 1 -16.993327 -4.343738 -17.873143
11 1 -16.731724 -2.319247 -19.292655
12 1 13.674521 -22.434525 -4.256709
13 1 10.472989 -21.575975 -2.569569
14 1 7.329567 -20.303731 -3.415885
15 1 3.638079 -20.780267 -5.112835
16 1 3.789014 -19.512217 -3.367842
17 1 7.016533 -19.525524 0.140128
18 1 23.188117 -4.448253 11.958479
19 1 22.342196 -3.777156 10.800206
20 1 22.027451 -4.890249 14.937851
21 1 -19.421365 -11.082394 -14.578173
22 1 -21.672545 -8.914344 -12.556142
23 1 20.720074 -10.091344 -14.868512
24 1 17.906476 -10.371380 0.823860
25 1 19.010580 -11.759003 -0.241780
26 1 20.697751 -12.096372 3.425004
27 1 -17.503691 -15.102736 17.710580
28 1 -5.670021 9.634439 17.453252
29 1 -4.254282 7.612935 16.501449
30 1 -8.044654 11.804550 14.521744
31 1 -6.804967 8.891510 16.696286
ITEM: TIMESTEP
23
ITEM: NUMBER OF ATOMS
32
ITEM: BOX BOUNDS pp pp pp
-24.218291063497695 24.218291063497695
-24.218291063497695 24.218291063497695
-24.218291063497695 24.218291063497695
ITEM: ATOMS id type xs ys zs
0 1 -9.948419 16.041133 8.778183
1 1 -11.094858 15.358929 6.643562
2 1 -12.056144 14.358154 9.099272
3 1 -12.117662 10.204543 8.169095
4 1 -9.471474 8.091847 9.241157
5 1 -11.573186 8.433413 7.495004
6 1 -17.864634 5.293944 -17.431360
7 1 -19.450423 -1.150039 -14.038899
8 1 -18.533096 -1.321082 -10.712447
9 1 -16.201306 -2.965852 -11.383254
10 1 -16.546812 0.065245 -14.458372
11 1 -15.048803 -3.547689 -16.442026
12 1 4.446942 -9.508373 -13.030438
13 1 4.420995 -12.037890 -13.388178
14 1 2.952627 -13.843090 -13.712561
15 1 3.060021 -15.726245 -15.433378
16 1 4.540900 -16.787924 -15.287968
17 1 7.790242 -15.022208 -17.043659
18 1 -2.185999 -11.526844 9.622281
19 1 -3.308629 -13.104956 10.252228
20 1 -6.903203 -13.402002 10.194442
21 1 -17.543673 -18.582838 21.661213
22 1 -17.233979 -17.864727 23.662554
23 1 -12.870106 -17.183039 21.122807
24 1 8.588700 -14.785743 -18.409959
25 1 8.053042 -13.979370 -20.709899
26 1 3.828898 -12.195054 -19.295324
27 1 -1.927896 -16.629531 20.362200
28 1 -13.439296 11.509555 6.859348
29 1 -11.239032 10.459883 7.911252
30 1 -12.211127 12.712221 8.190739
31 1 -11.721344 13.388303 6.501625
ITEM: TIMESTEP
24
ITEM: NUMBER OF ATOMS
32
ITEM: BOX BOUNDS pp pp pp
-24.218291063497695 24.218291063497695
-24.218291063497695 24.218291063497695
-24.218291063497695 24.218291063497695
ITEM: ATOMS id type xs ys zs
0 1 -15.559022 10.699506 8.339192
1 1 -17.297431 12.938272 9.065560
2 1 -14.602367 14.728687 9.661666
3 1 -15.320888 15.432063 6.388281
4 1 -17.097709 14.079844 4.898623
5 1 -19.374459 12.821056 4.777645
6 1 22.684389 -11.030230 -23.363118
7 1 21.135947 -10.300187 22.097178
8 1 22.753787 -7.832984 20.648872
9 1 23.898531 -5.808184 19.981321
10 1 -23.402525 -4.583820 18.618724
11 1 23.907019 -5.762320 15.570863
12 1 -0.543997 -6.910331 -12.872688
13 1 -2.996632 -8.446476 -16.487964
14 1 -1.467748 -7.128738 -16.012652
15 1 5.125235 -10.005973 -16.374909
16 1 4.255247 -9.589772 -11.641556
17 1 5.246586 -14.157171 -13.770488
18 1 -6.840969 -7.284104 -23.947917
19 1 -8.709446 -9.809871 22.951544
20 1 -10.745237 -14.395345 -22.202464
21 1 -19.045271 -16.709822 17.166814
22 1 -16.067835 -17.741973 17.424359
23 1 -16.483499 -14.494575 18.836370
24 1 -1.309447 -9.594806 -18.345667
25 1 -2.948864 -10.142847 -18.227820
26 1 -3.315698 -9.170898 -20.901580
27 1 -7.813273 -12.959065 22.949274
28 1 -15.728027 14.107368 8.744398
29 1 -16.431413 13.631686 6.701342
30 1 -14.052668 14.532957 8.239881
31 1 -15.367451 12.823329 9.379754
ITEM: TIMESTEP
25
ITEM: NUMBER OF ATOMS
32
ITEM: BOX BOUNDS pp pp pp
-24.218291063497695 24.218291063497695
-24.218291063497695 24.218291063497695
-24.218291063497695 24.218291063497695
ITEM: ATOMS id type xs ys zs
0 1 -8.233864 16.182514 4.420484
1 1 -7.114621 15.048236 1.462783
2 1 -7.927965 17.685083 1.811590
3 1 -11.346298 14.499680 3.983784
4 1 -14.819303 14.008329 3.417433
5 1 -15.387843 18.460292 8.548132
6 1 14.348126 -15.652892 -10.772536
7 1 13.030808 -14.877295 -10.328066
8 1 15.677648 -15.436452 -12.578597
9 1 13.650345 -13.167570 -15.331479
10 1 10.914197 -16.369258 -11.441402
11 1 11.819277 -14.342457 -15.001263
12 1 -0.703092 -0.373298 7.767297
13 1 -4.205599 -0.635625 7.578524
14 1 -4.587688 -0.799510 4.568241
15 1 -7.066526 -2.449004 4.578107
16 1 -11.407133 -1.712563 1.376894
17 1 -10.789337 -5.342629 2.708422
18 1 -10.221648 -15.203374 -7.820077
19 1 -11.367295 -12.138547 -8.848447
20 1 -10.282993 -12.851731 -12.192435
21 1 -16.338632 -20.601653 4.482373
22 1 -14.915651 -22.721715 4.107239
23 1 -17.083986 -21.681907 -1.680764
24 1 0.368087 -10.892794 -3.552034
25 1 -1.444883 -11.708474 -4.810480
26 1 -7.282934 -8.763898 -6.315902
27 1 -13.627585 -8.135507 -10.907083
28 1 -8.305145 14.791802 1.428579
29 1 -11.367953 12.954766 3.411754
30 1 -6.970033 17.227481 2.218535
31 1 -8.364734 13.957157 1.262461
ITEM: TIMESTEP
26
ITEM: NUMBER OF ATOMS
32
ITEM: BOX BOUNDS pp pp pp
-24.218291063497695 24.218291063497695
-24.218291063497695 24.218291063497695
-24.218291063497695 24.218291063497695
ITEM: ATOMS id type xs ys zs
0 1 -12.905533 12.652798 6.446465
1 1 -12.056497 15.180782 7.766066
2 1 -8.995993 13.382694 7.932092
3 1 -11.153854 14.735607 9.256772
4 1 -10.857060 18.658350 11.612612
5 1 -12.296137 17.425131 15.146552
6 1 8.528124 -11.714360 -2.473283
7 1 5.942801 -11.678130 -5.594580
8 1 5.750274 -11.104239 -2.587119
9 1 5.931298 -15.045908 -0.835825
10 1 7.908617 -18.204095 1.282883
11 1 3.909052 -19.446413 3.704063
12 1 -4.691452 -20.722596 -11.629609
13 1 -7.106349 23.464328 -9.496232
14 1 -7.140161 20.567468 -10.902409
15 1 -4.677143 -21.915665 -11.064523
16 1 -2.443777 -21.319589 -13.061627
17 1 -1.963071 -23.368115 -14.373126
18 1 -7.528369 -15.060677 -7.034890
19 1 -6.113344 -13.989945 -5.574770
20 1 -5.751637 -11.286883 -9.199637
21 1 -15.692363 -8.722138 1.784314
22 1 -17.508769 -8.068174 1.651632
23 1 -19.217416 -10.245389 1.129999
24 1 -24.155554 -10.198591 0.523217
25 1 -22.091510 -13.153094 1.424313
26 1 -19.241130 -15.230024 -1.687607
27 1 -10.834202 -11.024271 -3.896689
28 1 -9.870725 14.337679 10.898722
29 1 -10.073358 17.452547 8.776178
30 1 -7.548435 14.276489 7.507331
31 1 -12.829183 13.420071 7.206199
ITEM: TIMESTEP
27
ITEM: NUMBER OF ATOMS
32
ITEM: BOX BOUNDS pp pp pp
-24.218291063497695 24.218291063497695
-24.218291063497695 24.218291063497695
-24.218291063497695 24.218291063497695
ITEM: ATOMS id type xs ys zs
0 1 -3.523163 8.426358 -0.854591
1 1 -7.339797 8.183935 -2.023443
2 1 -6.181269 9.375586 -1.856474
3 1 -3.514593 9.846652 -0.914981
4 1 -1.514960 7.287606 -1.112577
5 1 -0.638218 3.455307 -2.664417
6 1 5.369133 -22.427714 16.726328
7 1 7.576981 -23.764439 15.694062
8 1 8.264708 24.188594 12.985530
9 1 7.045307 22.578225 13.683969
10 1 3.655639 21.607890 16.384767
11 1 4.384151 17.700319 12.999286
12 1 -3.987005 -7.835859 4.687106
13 1 -2.794103 -9.678890 6.382572
14 1 -2.599281 -11.757570 4.653571
15 1 -3.204128 -13.495091 4.460741
16 1 -4.336178 -12.840221 6.355594
17 1 -0.553145 -12.666493 5.245009
18 1 -3.044035 22.355876 -17.378552
19 1 -2.491319 -23.618513 -16.073436
20 1 -1.940844 -21.366166 -17.529768
21 1 -16.194729 -19.230168 -11.745021
22 1 -16.201938 -21.290468 -11.734051
23 1 -18.427970 -19.434710 -13.951431
24 1 -9.654759 -9.525773 -18.595719
25 1 -11.268806 -7.668584 -17.426294
26 1 -12.902319 -13.580113 -19.409682
27 1 -11.315553 -15.319263 -14.228984
28 1 -5.604259 7.831945 -2.814415
29 1 -5.479088 11.207575 -2.083827
30 1 -6.361026 10.044504 -0.173265
31 1 -5.418042 7.409979 -2.014562
ITEM: TIMESTEP
28
ITEM: NUMBER OF ATOMS
32
ITEM: BOX BOUNDS pp pp pp
-24.218291063497695 24.218291063497695
-24.218291063497695 24.218291063497695
-24.218291063497695 24.218291063497695
ITEM: ATOMS id type xs ys zs
0 1 0.102021 12.895206 1.934674
1 1 -4.307224 12.766279 0.272951
2 1 -2.501945 10.797152 2.254423
3 1 -4.580763 15.453741 3.431295
4 1 -1.343658 14.492419 4.102961
5 1 2.418587 16.815916 4.872698
6 1 2.159504 -20.601192 13.139376
7 1 1.965482 -20.197302 14.770341
8 1 0.519099 -21.563264 12.289979
9 1 1.292016 -19.408700 9.226300
10 1 3.833201 -19.227558 6.231439
11 1 5.981886 -17.668941 6.584062
12 1 -3.872950 -2.199644 -24.143255
13 1 -1.807923 -0.347999 -23.023562
14 1 -2.487704 -1.835017 24.209091
15 1 0.020745 -3.228765 -23.146157
16 1 0.264682 -5.525392 21.646771
17 1 -1.680868 -4.431350 20.889587
18 1 -23.287661 -17.340399 -2.124198
19 1 -23.002884 -15.071739 0.391383
20 1 -22.119781 -15.803555 -5.328523
21 1 -4.018264 20.865529 -4.785549
22 1 -3.937134 22.514223 -4.135399
23 1 -8.428552 -22.465166 -3.955887
24 1 -12.693796 -13.976536 -8.583438
25 1 -14.430268 -14.347598 -7.852366
26 1 -16.022829 -13.432465 -10.674126
27 1 -19.850302 -18.430864 -9.786026
28 1 -4.661713 11.915103 3.514519
29 1 -3.811771 14.795434 3.090947
30 1 -3.184784 11.513481 2.516530
31 1 -4.901676 12.522662 0.665907
ITEM: TIMESTEP
29
ITEM: NUMBER OF ATOMS
32
ITEM: BOX BOUNDS pp pp pp
-24.218291063497695 24.218291063497695
-24.218291063497695 24.218291063497695
-24.218291063497695 24.218291063497695
ITEM: ATOMS id type xs ys zs
0 1 -2.597196 13.884496 9.312551
1 1 -4.236200 10.424633 13.972037
2 1 -3.927436 9.818638 11.035266
3 1 -5.629311 7.832997 16.117660
4 1 -6.863761 9.513371 17.722421
5 1 -7.989803 10.310861 12.856680
6 1 14.475255 -6.081783 -20.169655
7 1 15.877556 -7.887601 -23.106002
8 1 16.591938 -10.128161 23.555070
9 1 18.849511 -10.320281 -22.638318
10 1 21.801324 -9.469016 -22.838913
11 1 20.644933 -6.519662 -24.011969
12 1 -7.475843 6.060856 12.943721
13 1 -6.289978 6.036583 13.642154
14 1 -6.414245 3.994513 11.784309
15 1 -9.822910 7.670046 11.041409
16 1 -11.045854 8.510198 13.251222
17 1 -11.588177 5.218536 11.078718
18 1 23.880040 13.955065 -9.751633
19 1 -22.160608 13.887326 -11.847431
20 1 23.627858 11.607556 -9.920929
21 1 -12.269674 18.325828 -12.690440
22 1 -11.936549 16.466276 -14.197357
23 1 -12.926239 20.451807 -11.487726
24 1 -24.116041 -20.863971 -16.027473
25 1 -23.635565 -19.507286 -14.655799
26 1 21.257631 -21.103693 -14.353524
27 1 -16.691005 23.530917 -13.600648
28 1 -6.295793 9.226954 15.065481
29 1 -6.506650 9.610846 14.311095
30 1 -5.269608 8.924848 16.436865
31 1 -3.819089 9.569701 15.030717
ITEM: TIMESTEP
30
ITEM: NUMBER OF ATOMS
32
ITEM: BOX BOUNDS pp pp pp
-24.218291063497695 24.218291063497695
-24.218291063497695 24.218291063497695
-24.218291063497695 24.218291063497695
ITEM: ATOMS id type xs ys zs
0 1 -3.615342 6.965939 22.899433
1 1 -1.558789 5.653536 20.802484
2 1 0.230674 5.327071 20.675346
3 1 -0.743196 5.182377 -24.009695
4 1 1.776753 4.955279 -20.631676
5 1 -1.101950 3.658195 -20.011670
6 1 21.785657 -18.445983 17.301437
7 1 21.427306 -16.698822 15.667844
8 1 22.509777 -15.609745 11.958935
9 1 -22.033446 -13.284277 8.221472
10 1 -23.326519 -14.554383 7.229935
11 1 -23.230459 -11.700597 6.794327
12 1 -5.921605 4.039449 19.638977
13 1 -3.615092 6.724486 21.261726
14 1 -0.822979 8.209863 21.295960
15 1 -4.675480 6.032273 -23.523330
16 1 -5.322104 7.014261 23.208970
17 1 -7.669115 6.469679 19.164338
18 1 -4.880207 -23.121131 -13.783847
19 1 -4.098969 -22.447426 -12.482898
20 1 -11.862525 -23.333849 -7.753923
21 1 -1.889692 20.361405 -0.218370
22 1 0.060506 20.481049 1.386143
23 1 -3.357370 -23.634720 1.299339
24 1 -15.622550 19.505004 0.660971
25 1 -13.970097 17.003871 -1.084113
26 1 -12.522322 15.171974 2.028168
27 1 -8.098206 23.340104 2.845643
28 1 -1.758305 6.725621 22.378782
29 1 -3.000138 6.715586 -21.944798
30 1 -1.083320 3.926739 -23.682079
31 1 -0.335278 6.553821 21.113262
ITEM: TIMESTEP
31
ITEM: NUMBER OF ATOMS
32
ITEM: BOX BOUNDS pp pp pp
-24.218291063497695 24.218291063497695
-24.218291063497695 24.218291063497695
-24.218291063497695 24.218291063497695
ITEM: ATOMS id type xs ys zs
0 1 6.337057 1.241496 -19.400206
1 1 6.341009 2.863734 -19.381250
2 1 6.762679 0.480886 -20.562275
3 1 4.775783 1.834390 -20.765358
4 1 5.425533 0.756350 -22.689232
5 1 3.099261 -0.009056 -20.369824
6 1 21.243216 -19.252668 -5.657452
7 1 24.064749 -18.627305 -4.211805
8 1 -23.144111 -17.078542 -7.061038
9 1 20.466161 -16.137898 -5.595755
10 1 18.220910 -15.306109 -6.077791
11 1 18.261929 -11.434554 -2.346854
12 1 7.542061 -0.705032 -15.274885
13 1 4.884926 0.673333 -18.844616
14 1 4.278254 2.986752 -18.348585
15 1 8.831266 2.620336 -21.030767
16 1 9.147142 1.358484 22.453661
17 1 11.123646 3.806614 23.363792
18 1 8.458616 21.904008 -17.352708
19 1 8.394911 22.921178 -15.281037
20 1 11.438044 22.081970 -15.557454
21 1 7.590285 15.417654 -5.013231
22 1 6.799862 16.168465 -7.098693
23 1 10.185930 16.820531 -7.345824
24 1 4.530985 -17.986222 -7.972574
25 1 2.650658 -17.681711 -6.327622
26 1 9.105542 -16.401770 -9.020307
27 1 11.638044 -22.850150 -8.280074
28 1 7.223810 1.544876 -20.390512
29 1 8.808752 1.359757 -20.666837
30 1 5.994197 2.099103 -18.937389
31 1 5.788614 1.928837 -22.123779
ITEM: TIMESTEP
32
ITEM: NUMBER OF ATOMS
32
ITEM: BOX BOUNDS pp pp pp
-24.218291063497695 24.218291063497695
-24.218291063497695 24.218291063497695
-24.218291063497695 24.218291063497695
ITEM: ATOMS id type xs ys zs
0 1 -2.985023 -3.366423 -18.862217
1 1 -5.051195 -1.663421 -21.355144
2 1 -2.910110 -1.817566 -18.839830
3 1 -5.208511 1.846299 -17.606842
4 1 -7.847407 2.258414 -16.155372
5 1 -4.480828 -0.002468 -16.043986
6 1 15.368893 20.389536 8.438646
7 1 12.392287 23.608855 7.748447
8 1 10.532289 24.193064 5.711411
9 1 13.646381 23.802137 4.573929
10 1 16.374609 -22.220910 5.560030
11 1 16.670952 -23.122364 2.794504
12 1 -9.494598 2.103566 -19.972295
13 1 -7.174218 3.441588 -18.177141
14 1 -8.690846 1.079487 -19.562892
15 1 -6.896017 -3.984322 -15.712427
16 1 -5.338561 -2.155173 -11.758404
17 1 -2.346975 -4.984293 -11.244897
18 1 19.670970 11.859201 -10.866399
19 1 17.167647 10.829725 -10.414225
20 1 19.134304 10.665336 -7.177939
21 1 17.717706 10.758510 2.623567
22 1 16.964042 9.907432 -0.618104
23 1 11.867137 10.459502 1.416253
24 1 -22.899036 17.184100 0.790391
25 1 -23.709196 18.249484 -1.143439
26 1 21.584188 21.238224 2.010451
27 1 12.375026 15.321603 -3.100002
28 1 -5.083729 1.294856 -19.036454
29 1 -5.569052 1.900072 -18.829045
30 1 -4.816859 -1.857859 -20.894662
31 1 -4.807000 2.985998 -20.028622
ITEM: TIMESTEP
33
ITEM: NUMBER OF ATOMS
32
ITEM: BOX BOUNDS pp pp pp
-24.218291063497695 24.218291063497695
-24.218291063497695 24.218291063497695
-24.218291063497695 24.218291063497695
ITEM: ATOMS id type xs ys zs
0 1 -16.885889 -11.182307 22.913337
1 1 -12.946679 -9.289008 22.602993
2 1 -15.431519 -10.650237 22.185200
3 1 -11.521221 -9.279208 -23.096514
4 1 -10.568094 -10.294853 -19.685978
5 1 -10.827036 -13.087595 -20.690626
6 1 15.980059 10.270161 -10.198372
7 1 13.937580 12.390266 -7.327729
8 1 17.077503 13.413291 -8.784836
9 1 19.359434 11.768062 -6.069605
10 1 17.780545 9.713817 -6.259215
11 1 14.143847 11.236449 -6.528136
12 1 -7.528839 -5.560726 -21.789080
13 1 -13.494397 -1.803846 -22.154027
14 1 -12.345420 -3.480247 -22.933472
15 1 -11.117847 -6.090323 -22.461470
16 1 -13.907431 -8.581557 -20.732734
17 1 -14.036192 -10.028024 -16.216335
18 1 21.928231 -1.456471 8.967674
19 1 20.278955 -1.578423 8.553397
20 1 20.854438 1.434381 4.857881
21 1 -24.009481 13.706242 -5.265602
22 1 -23.476057 11.397104 -5.445940
23 1 -22.443953 10.903409 -3.481561
24 1 22.371115 7.984807 -7.349155
25 1 22.017922 7.089875 -9.267412
26 1 22.676994 9.768318 -2.768960
27 1 -23.682102 1.115216 1.633639
28 1 -13.329682 -4.330267 -22.381518
29 1 -14.297881 -2.210578 -22.911867
30 1 -13.054574 -5.856235 -21.812384
31 1 -11.137375 -7.091423 23.391744
ITEM: TIMESTEP
34
ITEM: NUMBER OF ATOMS
32
ITEM: BOX BOUNDS pp pp pp
-24.218291063497695 24.218291063497695
-24.218291063497695 24.218291063497695
-24.218291063497695 24.218291063497695
ITEM: ATOMS id type xs ys zs
0 1 21.501611 -12.122427 -22.860256
1 1 23.955714 -7.643302 -23.171716
2 1 -22.953174 -5.460249 23.154137
3 1 -19.886207 -6.091624 21.189597
4 1 -18.829436 -6.533008 22.476917
5 1 -21.801871 -4.158325 23.984561
6 1 5.802694 -7.643027 -5.542875
7 1 5.555894 -6.540094 -4.807445
8 1 3.476642 -5.309351 -3.330020
9 1 6.719731 -4.611869 -3.030364
10 1 6.097596 -0.796360 -6.238115
11 1 8.016656 -1.955168 -7.639563
12 1 -22.630734 -4.822667 21.507967
13 1 22.850277 -10.102053 23.163134
14 1 23.021598 -7.263099 21.240851
15 1 -23.450101 -6.016412 20.084600
16 1 -21.781903 -4.222923 21.455040
17 1 -21.185301 -7.159893 22.400830
18 1 -19.126556 13.923190 4.625247
19 1 -18.540703 15.527532 3.775668
20 1 -19.424406 10.618385 7.585569
21 1 18.151789 9.553157 -3.816757
22 1 16.958929 11.298687 -3.143532
23 1 21.360952 10.724045 0.661322
24 1 -16.657238 13.381589 -9.055385
25 1 -18.909370 12.191269 -8.323224
26 1 -17.184062 8.127886 -4.292545
27 1 -23.252340 12.417929 5.065841
28 1 23.915364 -8.393609 23.766856
29 1 -23.671871 -7.891047 23.290344
30 1 -23.897385 -10.139735 21.789708
31 1 23.898138 -6.711120 20.547487
ITEM: TIMESTEP
35
ITEM: NUMBER OF ATOMS
32
ITEM: BOX BOUNDS pp pp pp
-24.218291063497695 24.218291063497695
-24.218291063497695 24.218291063497695
-24.218291063497695 24.218291063497695
ITEM: ATOMS id type xs ys zs
0 1 7.551976 -10.483165 2.692470
1 1 7.722000 -11.608262 2.062752
2 1 7.839031 -9.839369 1.869730
3 1 8.320951 -10.911369 -1.175904
4 1 9.388598 -11.228607 -3.072159
5 1 8.667732 -8.368763 -1.471230
6 1 -6.760244 1.494422 7.420990
7 1 -2.136637 4.265240 9.041060
8 1 -0.511316 3.283669 7.913581
9 1 1.804063 4.673058 7.326069
10 1 -0.766241 1.770457 9.487339
11 1 1.784658 1.713397 5.382591
12 1 13.984101 -7.014003 23.452463
13 1 10.841576 -8.149960 22.571520
14 1 8.267140 -7.908815 -23.778121
15 1 8.316923 -7.937351 -21.712055
16 1 10.648363 -8.925908 -19.123916
17 1 12.793065 -11.160140 -16.763051
18 1 5.315811 6.753722 1.003840
19 1 3.969898 6.944022 2.069080
20 1 8.374610 10.868040 -0.080892
21 1 -22.077346 14.418055 3.725540
22 1 -23.482087 15.052678 2.284456
23 1 20.753754 14.843245 1.300126
24 1 19.238497 12.481000 -8.919368
25 1 19.752540 11.368118 -7.821127
26 1 18.502444 9.756481 -5.203427
27 1 15.028299 6.589548 -0.973105
28 1 8.949760 -7.121602 -23.179289
29 1 8.513579 -10.138941 -22.421928
30 1 10.833060 -6.314438 -24.061363
31 1 8.837621 -8.223891 21.115935
ITEM: TIMESTEP
36
ITEM: NUMBER OF ATOMS
32
ITEM: BOX BOUNDS pp pp pp
-24.218291063497695 24.218291063497695
-24.218291063497695 24.218291063497695
-24.218291063497695 24.218291063497695
ITEM: ATOMS id type xs ys zs
0 1 15.392014 18.196752 21.385857
1 1 14.645263 17.657654 19.372886
2 1 15.054742 17.637319 17.149127
3 1 10.550887 22.060184 14.744274
4 1 10.196990 20.043678 11.668319
5 1 9.190923 16.967312 10.163842
6 1 -12.965279 -20.024678 17.840658
7 1 -9.803111 -21.420420 20.028908
8 1 -9.599543 -21.357607 17.407534
9 1 -6.878032 -21.600118 16.680697
10 1 -4.393283 -20.742841 20.955632
11 1 -1.490527 -23.563960 23.953913
12 1 4.698829 6.651864 17.025858
13 1 7.271860 5.997085 18.692073
14 1 5.706345 5.653183 22.079958
15 1 8.227608 2.965151 23.540332
16 1 11.669927 1.427812 -23.890761
17 1 11.824301 0.055000 -20.774127
18 1 12.177345 17.736758 1.422207
19 1 10.725928 16.727952 1.413848
20 1 18.448310 10.996985 4.037948
21 1 15.179553 9.545157 -1.534855
22 1 14.369396 7.286216 -1.414230
23 1 19.695930 8.558801 0.165848
24 1 -18.731601 11.671447 -2.199416
25 1 -18.102978 13.876113 -1.302054
26 1 -22.941728 10.915600 -2.567808
27 1 23.230008 13.698001 0.792185
28 1 6.849985 4.853073 20.379579
29 1 7.525956 3.085489 22.964929
30 1 8.096106 7.017756 18.641026
31 1 7.953593 6.249917 23.259662
ITEM: TIMESTEP
37
ITEM: NUMBER OF ATOMS
32
ITEM: BOX BOUNDS pp pp pp
-24.218291063497695 24.218291063497695
-24.218291063497695 24.218291063497695
-24.218291063497695 24.218291063497695
ITEM: ATOMS id type xs ys zs
0 1 13.268441 9.651144 -20.256272
1 1 14.439020 10.428413 -21.727398
2 1 17.324870 9.755733 -22.165700
3 1 18.856582 10.774478 21.330127
4 1 19.447790 11.750781 23.705798
5 1 19.891378 9.768454 -23.889241
6 1 -7.695386 21.628268 11.024732
7 1 -9.581567 23.296859 14.586896
8 1 -10.141832 -23.068002 15.214528
9 1 -6.554876 -17.909592 13.035270
10 1 -3.002885 -18.251374 10.069214
11 1 -3.399383 -14.595865 9.148209
12 1 19.030348 4.147234 23.694836
13 1 19.057700 4.016451 21.193692
14 1 17.803826 4.301191 20.341557
15 1 19.567378 1.668577 24.049625
16 1 20.666777 2.397189 -22.772538
17 1 21.298960 -0.961588 20.957671
18 1 17.125869 -21.116417 -3.409922
19 1 19.030549 -22.574919 -5.783666
20 1 20.400744 20.789984 -6.803232
21 1 -24.120976 6.653537 -5.271224
22 1 23.055249 4.176679 -5.127507
23 1 15.848591 7.093004 -7.864307
24 1 16.884302 -21.352291 3.204368
25 1 18.020629 -21.305973 0.948613
26 1 13.279040 21.691277 0.665176
27 1 14.473127 19.004957 -3.182096
28 1 18.773859 5.604919 21.574881
29 1 20.361134 1.203057 23.603715
30 1 18.620108 5.315121 22.463063
31 1 15.318153 3.728238 20.552262
ITEM: TIMESTEP
38
ITEM: NUMBER OF ATOMS
32
ITEM: BOX BOUNDS pp pp pp
-24.218291063497695 24.218291063497695
-24.218291063497695 24.218291063497695
-24.218291063497695 24.218291063497695
ITEM: ATOMS id type xs ys zs
0 1 8.407303 6.232501 19.624435
1 1 6.285198 9.224013 20.680674
2 1 6.781124 7.088345 20.071420
3 1 8.994925 8.213267 19.840374
4 1 8.400278 9.699532 21.593885
5 1 6.473059 8.491535 -23.082987
6 1 4.411660 17.808928 20.287628
7 1 4.312078 21.826390 19.832448
8 1 3.709814 20.663727 17.363092
9 1 7.715495 20.796535 21.024701
10 1 8.767558 19.300386 -21.346973
11 1 8.624742 20.963753 -23.620192
12 1 19.774080 -4.941024 19.739171
13 1 16.043524 -1.354207 17.909724
14 1 16.307455 -3.906548 15.476920
15 1 15.628690 -6.344141 15.226751
16 1 15.201078 -2.741196 14.442388
17 1 13.314772 -7.229181 11.997405
18 1 7.931612 -22.281433 20.395939
19 1 9.925715 -21.434254 22.448832
20 1 5.215747 -22.833214 23.918217
21 1 11.205768 15.503716 -12.447378
22 1 12.977106 11.557681 -13.125660
23 1 12.136295 17.485984 -14.086260
24 1 6.983269 19.176536 -19.646424
25 1 9.359942 18.230438 -18.988249
26 1 7.273989 16.177316 -23.076584
27 1 6.760902 24.151652 -18.799893
28 1 15.780907 -3.806183 14.277049
29 1 15.646552 -6.125377 12.173201
30 1 19.154097 -6.661072 11.621252
31 1 17.095657 -3.855879 16.122638
ITEM: TIMESTEP
39
ITEM: NUMBER OF ATOMS
32
ITEM: BOX BOUNDS pp pp pp
-24.218291063497695 24.218291063497695
-24.218291063497695 24.218291063497695
-24.218291063497695 24.218291063497695
ITEM: ATOMS id type xs ys zs
0 1 -0.336278 18.575181 10.935678
1 1 4.364419 17.733486 12.579969
2 1 5.298338 17.730507 14.586025
3 1 6.823997 14.689582 14.725707
4 1 9.484178 12.171566 12.246328
5 1 9.229175 15.532685 12.113959
6 1 12.993515 22.256232 10.854396
7 1 14.206453 18.942959 10.253022
8 1 14.491771 20.392070 12.842225
9 1 13.210520 -22.747676 13.171675
10 1 15.856902 -24.041469 13.085602
11 1 17.209867 22.710743 12.205511
12 1 -21.634148 -23.267566 13.428496
13 1 -21.955852 -22.433619 12.346429
14 1 -20.893827 -21.780825 14.967350
15 1 -19.110944 -21.110541 12.948816
16 1 -18.343170 -15.303106 15.535701
17 1 -16.380783 -17.763678 18.523145
18 1 -0.136085 18.621604 19.388733
19 1 0.154521 16.824354 17.077111
20 1 4.658226 16.085823 18.387674
21 1 2.383524 -22.338533 22.050447
22 1 -0.149730 -23.445624 23.644016
23 1 4.512786 -21.903080 20.195965
24 1 17.125338 -11.513567 -16.926596
25 1 15.654473 -10.706286 -15.382754
26 1 14.111831 -5.592541 -18.418791
27 1 4.963574 -22.020182 -21.575300
28 1 -19.986164 22.881268 13.685792
29 1 -18.554770 -22.932901 13.942210
30 1 -22.121977 -23.869790 11.988806
31 1 -20.135874 -22.778004 14.217059
ITEM: TIMESTEP
40
ITEM: NUMBER OF ATOMS
32
ITEM: BOX BOUNDS pp pp pp
-24.218291063497695 24.218291063497695
-24.218291063497695 24.218291063497695
-24.218291063497695 24.218291063497695
ITEM: ATOMS id type xs ys zs
0 1 -0.024832 3.803161 13.710579
1 1 3.394386 5.944901 16.127395
2 1 3.032679 6.849195 14.426911
3 1 1.739361 13.354294 15.445891
4 1 4.042925 13.565704 15.196765
5 1 4.018503 15.340209 12.803207
6 1 15.454822 -23.371309 11.410831
7 1 12.543119 -20.552701 10.475997
8 1 12.095045 -20.776723 6.750260
9 1 11.858440 -18.814953 4.447399
10 1 9.527929 -18.129092 3.651290
11 1 7.817654 -20.328906 4.680142
12 1 -8.771914 23.801328 13.059107
13 1 -11.631023 -23.914311 13.688942
14 1 -12.667596 -20.990220 13.653204
15 1 -9.969727 -21.672253 14.207854
16 1 -13.244361 -20.645734 15.203159
17 1 -16.300280 -21.377716 10.389499
18 1 17.448554 -18.858908 15.286573
19 1 15.357052 -19.740338 14.323097
20 1 13.427259 -22.148049 13.069886
21 1 20.917887 23.930440 22.262668
22 1 19.578511 22.602030 24.003391
23 1 21.432986 20.236149 24.193864
24 1 9.783671 -20.118049 21.180240
25 1 6.691723 -19.794325 23.076897
26 1 7.653220 -21.776728 -21.646776
27 1 17.615393 -21.157200 -18.891712
28 1 -9.250961 -23.281420 14.884041
29 1 -10.720048 -21.073332 15.583816
30 1 -11.614281 -24.169414 12.584118
31 1 -11.032532 -22.183171 13.054648
ITEM: TIMESTEP
41
ITEM: NUMBER OF ATOMS
32
ITEM: BOX BOUNDS pp pp pp
-24.218291063497695 24.218291063497695
-24.218291063497695 24.218291063497695
-24.218291063497695 24.218291063497695
ITEM: ATOMS id type xs ys zs
0 1 7.990997 6.132636 12.699442
1 1 8.815893 7.263305 10.347943
2 1 8.369430 9.797167 9.658689
3 1 9.339351 5.175421 7.529027
4 1 8.932130 7.841811 8.345379
5 1 6.159111 8.501791 7.975262
6 1 -3.352600 -14.725094 -8.471622
7 1 -2.907473 -10.984908 -9.375374
8 1 0.222644 -10.928689 -7.971986
9 1 -1.891501 -11.682699 -5.761390
10 1 -3.451046 -12.511840 -3.031316
11 1 -5.091034 -14.283891 -4.975998
12 1 22.551500 -14.695955 3.858369
13 1 -23.975963 -13.939140 6.917908
14 1 -23.894860 -13.911128 3.560559
15 1 22.884684 -12.887189 6.484098
16 1 -21.127081 -13.133803 6.610473
17 1 -19.292097 -9.251119 4.436478
18 1 14.913201 13.867077 15.662551
19 1 15.237956 15.496064 14.962790
20 1 19.080440 15.791253 17.880356
21 1 18.044636 17.404548 19.831475
22 1 17.522242 18.392157 17.449636
23 1 16.532026 14.741639 19.207922
24 1 -16.158588 24.096386 -15.396516
25 1 -15.242348 -24.157743 -17.454757
26 1 -19.729562 19.825501 -17.327033
27 1 21.130098 15.824155 -21.556306
28 1 -24.083423 -15.991695 5.012726
29 1 23.980651 -13.337439 7.289426
30 1 23.294100 -16.112543 6.970965
31 1 22.120367 -16.177278 4.104909
ITEM: TIMESTEP
42
ITEM: NUMBER OF ATOMS
32
ITEM: BOX BOUNDS pp pp pp
-24.218291063497695 24.218291063497695
-24.218291063497695 24.218291063497695
-24.218291063497695 24.218291063497695
ITEM: ATOMS id type xs ys zs
0 1 2.090073 5.094345 11.177227
1 1 4.333524 7.055631 9.544857
2 1 4.987212 6.733627 12.766083
3 1 3.235793 7.001828 11.786994
4 1 0.223302 0.717881 10.303856
5 1 0.606504 4.654324 11.766682
6 1 6.251602 -21.537396 10.124070
7 1 5.661806 -16.081299 7.533258
8 1 6.680150 -13.498305 7.204468
9 1 5.746596 -16.805793 9.667197
10 1 3.199989 -18.194593 9.478702
11 1 7.720697 -22.734991 7.337731
12 1 -16.422270 -16.670307 -2.772361
13 1 -17.027952 -15.052676 -5.701220
14 1 -17.357008 -17.670508 -5.368680
15 1 -19.485948 -15.301284 -2.234083
16 1 -23.893523 -15.622804 -0.475859
17 1 -22.663247 -17.988975 0.630004
18 1 17.327676 12.663985 18.205012
19 1 17.317981 12.577458 15.771286
20 1 21.341101 8.349490 18.271856
21 1 -15.672707 9.727121 -21.970946
22 1 -14.422834 8.393664 -22.073690
23 1 -15.106999 9.575815 -15.634191
24 1 -20.911956 17.816100 -12.490949
25 1 -19.399529 18.193630 -13.998488
26 1 -13.206177 18.270326 -10.690344
27 1 -16.796008 9.956881 -20.383756
28 1 -17.828935 -16.329751 -4.100866
29 1 -19.867644 -15.677041 -2.445897
30 1 -18.805688 -15.369985 -5.686614
31 1 -16.828598 -16.656600 -4.983977
ITEM: TIMESTEP
43
ITEM: NUMBER OF ATOMS
32
ITEM: BOX BOUNDS pp pp pp
-24.218291063497695 24.218291063497695
-24.218291063497695 24.218291063497695
-24.218291063497695 24.218291063497695
ITEM: ATOMS id type xs ys zs
0 1 3.283294 6.991672 20.753668
1 1 2.088115 6.270348 18.075934
2 1 2.420296 9.092278 18.128790
3 1 4.882920 9.509169 15.701702
4 1 9.640069 12.753816 13.753890
5 1 13.065362 14.451345 15.554413
6 1 8.993891 15.149257 -6.836318
7 1 10.073538 17.735879 -5.039006
8 1 11.795576 21.391793 -3.687770
9 1 12.531249 20.383736 -0.898344
10 1 12.204753 19.553465 3.020228
11 1 12.468009 17.704463 5.146362
12 1 16.539063 -16.370833 -5.700467
13 1 18.693082 -14.167056 -3.377000
14 1 19.843645 -12.559179 -6.050717
15 1 20.734360 -14.879239 -2.883407
16 1 24.168123 -16.655788 -0.199580
17 1 23.005473 -19.139227 1.776244
18 1 -20.392255 6.978288 -15.353006
19 1 -21.247499 5.800087 -15.138913
20 1 -18.469984 2.570942 -18.492690
21 1 -22.235211 -4.101425 18.573477
22 1 -22.605667 -2.833472 18.815757
23 1 -22.090560 -0.864596 15.756010
24 1 -15.440097 -5.203662 14.547080
25 1 -14.395118 -4.447076 13.085512
26 1 -15.211502 -8.117710 17.475420
27 1 -17.552754 -7.288048 19.702179
28 1 18.182538 -14.782119 -6.287949
29 1 22.409028 -15.896088 -4.523015
30 1 18.623983 -12.849939 -4.794056
31 1 19.136938 -10.840828 -6.014665
ITEM: TIMESTEP
44
ITEM: NUMBER OF ATOMS
32
ITEM: BOX BOUNDS pp pp pp
-24.218291063497695 24.218291063497695
-24.218291063497695 24.218291063497695
-24.218291063497695 24.218291063497695
ITEM: ATOMS id type xs ys zs
0 1 -8.238123 -2.658422 -23.584989
1 1 -9.735435 -0.424163 -20.737962
2 1 -8.770304 1.758462 -22.598292
3 1 -5.173255 1.029343 -21.126903
4 1 -9.768498 2.567812 -23.581116
5 1 -11.065512 1.837049 23.251119
6 1 8.963486 -20.452840 6.475902
7 1 9.508393 -18.347298 3.231182
8 1 7.512702 -17.674983 3.729272
9 1 11.687881 -18.233788 3.512943
10 1 12.210807 -19.659834 1.264557
11 1 14.403481 -15.958594 -0.310422
12 1 17.526042 0.566970 0.388297
13 1 15.593012 -1.888747 -1.057002
14 1 17.294851 -0.866690 0.320966
15 1 14.882376 2.020166 -2.194124
16 1 12.269157 4.205228 0.414399
17 1 14.688090 4.562621 2.386260
18 1 -16.308679 -0.712258 -17.599395
19 1 -17.818173 0.722906 -18.915491
20 1 -18.617804 -2.545891 -23.527345
21 1 -21.983351 -0.082586 17.120937
22 1 -20.603960 -0.709101 18.474529
23 1 -14.768551 2.821030 20.723327
24 1 -22.874546 -0.706523 23.592424
25 1 -22.844446 0.724162 -23.743887
26 1 -17.783671 2.546260 17.879416
27 1 -20.071086 -1.261230 -23.063435
28 1 13.043722 2.153950 -0.924732
29 1 15.373602 1.322976 0.235068
30 1 16.196370 -1.435727 -0.915197
31 1 15.367100 -1.385867 1.523157
ITEM: TIMESTEP
45
ITEM: NUMBER OF ATOMS
32
ITEM: BOX BOUNDS pp pp pp
-24.218291063497695 24.218291063497695
-24.218291063497695 24.218291063497695
-24.218291063497695 24.218291063497695
ITEM: ATOMS id type xs ys zs
0 1 -12.262189 5.481902 -21.208193
1 1 -13.206046 4.155541 -22.414037
2 1 -12.280956 1.350839 -21.501312
3 1 -12.529351 2.649222 -19.748257
4 1 -9.660530 -1.800987 -21.375848
5 1 -12.862179 0.833936 -17.895664
6 1 6.842337 -16.879442 -6.092324
7 1 5.190228 -18.809189 -5.402937
8 1 6.798722 -17.777270 -2.324732
9 1 5.316848 -16.194677 0.061119
10 1 4.463897 -16.798403 2.638692
11 1 8.380104 -15.705395 4.433917
12 1 15.167955 8.186983 7.139941
13 1 10.000832 10.102834 9.333130
14 1 9.926676 8.798823 7.057282
15 1 6.973484 10.549044 7.922147
16 1 6.051180 8.958736 8.511825
17 1 9.466489 6.899059 9.623733
18 1 -12.499205 -13.285099 21.595981
19 1 -11.073665 -12.204505 22.114336
20 1 -13.599584 -13.413296 -20.102338
21 1 -14.920767 -8.989687 20.618091
22 1 -13.755853 -7.167085 20.550540
23 1 -16.769275 -10.131513 18.631488
24 1 22.320854 -8.526060 -16.211808
25 1 23.671976 -6.981167 -15.118974
26 1 21.648714 -5.695693 -20.005577
27 1 -22.897332 -7.100554 23.440867
28 1 8.209994 7.669495 9.383520
29 1 7.622064 9.792751 8.811494
30 1 9.774959 8.773378 6.286394
31 1 10.206199 7.683418 7.622132
ITEM: TIMESTEP
46
ITEM: NUMBER OF ATOMS
32
ITEM: BOX BOUNDS pp pp pp
-24.218291063497695 24.218291063497695
-24.218291063497695 24.218291063497695
-24.218291063497695 24.218291063497695
ITEM: ATOMS id type xs ys zs
0 1 -4.414393 2.248247 -16.900054
1 1 -2.984705 4.331447 -15.186629
2 1 -5.377461 2.700369 -13.587472
3 1 -4.459142 6.730887 -8.922057
4 1 -3.262990 6.015577 -6.638919
5 1 -5.051591 3.966231 -8.520010
6 1 5.744948 23.239343 24.141236
7 1 6.100666 21.712567 22.481001
8 1 7.527368 -23.613502 23.488128
9 1 9.984234 -15.659357 22.602612
10 1 10.263445 -18.281320 23.249799
11 1 6.073995 -15.464455 19.089715
12 1 9.445771 14.676951 11.028331
13 1 11.071841 11.200159 7.951064
14 1 13.568294 10.505064 7.896635
15 1 13.929266 11.332354 10.526755
16 1 15.669976 10.397627 9.493965
17 1 14.005415 13.511398 12.048613
18 1 -23.289410 -14.719362 23.366926
19 1 23.504091 -14.585112 23.695163
20 1 -23.702225 -13.568752 17.775485
21 1 23.984888 -21.231032 20.907130
22 1 23.293491 -19.839189 21.270751
23 1 19.514719 -15.211201 -23.467842
24 1 -14.348587 -4.344726 16.439883
25 1 -14.987305 -5.950055 16.505563
26 1 -20.796520 -10.118399 14.439716
27 1 -23.412402 -14.240704 13.904798
28 1 14.928563 9.267181 7.348925
29 1 15.111106 10.101245 11.428606
30 1 11.282397 10.529894 8.886885
31 1 13.840532 10.039543 6.945294
ITEM: TIMESTEP
47
ITEM: NUMBER OF ATOMS
32
ITEM: BOX BOUNDS pp pp pp
-24.218291063497695 24.218291063497695
-24.218291063497695 24.218291063497695
-24.218291063497695 24.218291063497695
ITEM: ATOMS id type xs ys zs
0 1 -10.032305 -11.822589 -0.241482
1 1 -10.825691 -11.198124 -1.673914
2 1 -10.196655 -13.716605 -1.659804
3 1 -9.783729 -14.625572 -3.796516
4 1 -7.586595 -12.817253 0.599415
5 1 -10.480596 -17.051908 -0.088590
6 1 12.899323 11.180921 -6.591716
7 1 16.298997 13.000106 -6.559616
8 1 17.971497 14.152764 -5.222688
9 1 17.557049 20.014425 -4.030996
10 1 16.634943 21.278238 -5.905240
11 1 15.602896 20.526594 -10.994317
12 1 12.900821 13.142011 6.853139
13 1 12.981804 11.279467 4.919434
14 1 14.811714 14.084858 2.709303
15 1 11.479423 13.239372 3.500317
16 1 6.335811 13.733644 2.559326
17 1 4.998879 12.414922 8.864539
18 1 22.726532 -6.527693 20.121560
19 1 23.492266 -6.139330 22.954198
20 1 21.384729 -8.772976 -23.908457
21 1 -16.356140 -6.998722 22.277587
22 1 -15.976246 -6.767202 19.999169
23 1 -22.138260 -6.550593 22.583134
24 1 -18.127711 -16.742438 -22.009724
25 1 -19.575732 -19.696686 -22.443032
26 1 -16.322270 -18.899504 -21.113678
27 1 21.600378 -6.506365 19.165117
28 1 9.458265 12.630479 3.850834
29 1 10.669755 12.171474 3.359188
30 1 11.094199 11.575467 3.112857
31 1 13.055650 14.371255 1.393747
ITEM: TIMESTEP
48
ITEM: NUMBER OF ATOMS
32
ITEM: BOX BOUNDS pp pp pp
-24.218291063497695 24.218291063497695
-24.218291063497695 24.218291063497695
-24.218291063497695 24.218291063497695
ITEM: ATOMS id type xs ys zs
0 1 -1.423029 -0.854911 4.802722
1 1 -3.408662 -1.241273 4.464035
2 1 -1.974550 0.120864 5.425885
3 1 -5.769826 -0.913470 6.088910
4 1 -5.249199 -2.633545 7.011673
5 1 -7.482514 -3.408858 8.294540
6 1 5.825827 11.726245 -14.250979
7 1 7.557396 13.921337 -15.812486
8 1 8.808494 16.288939 -13.838177
9 1 6.797053 18.113948 -11.779638
10 1 3.616317 18.251904 -11.263140
11 1 4.893582 18.447827 -9.521769
12 1 2.998820 17.605722 -0.054253
13 1 6.439765 21.494470 -5.063551
14 1 8.755434 21.952772 -3.930591
15 1 6.416651 20.419823 -3.451577
16 1 5.959255 20.427997 -1.284100
17 1 9.553367 21.053854 -1.869677
18 1 -18.773751 -12.103283 -21.973067
19 1 -17.244780 -14.747258 -22.316230
20 1 -11.154734 -10.438397 23.764835
21 1 7.482656 -17.908356 20.884579
22 1 7.056145 -16.944652 18.648650
23 1 1.239837 -15.307563 17.113612
24 1 0.473819 -14.368636 -18.694764
25 1 -2.489285 -14.331145 -18.991568
26 1 -4.094010 -13.570277 -17.406361
27 1 0.243701 -12.296521 23.763996
28 1 7.936832 22.299194 -2.572713
29 1 8.254002 20.189174 -2.268307
30 1 7.691481 21.695727 -5.938024
31 1 8.531689 21.100251 -2.918484
ITEM: TIMESTEP
49
ITEM: NUMBER OF ATOMS
32
ITEM: BOX BOUNDS pp pp pp
-24.218291063497695 24.218291063497695
-24.218291063497695 24.218291063497695
-24.218291063497695 24.218291063497695
ITEM: ATOMS id type xs ys zs
0 1 -22.187418 -2.619450 7.972770
1 1 -19.169506 -1.289072 7.956588
2 1 -16.447188 -1.531031 5.799794
3 1 -15.183795 -1.656254 8.085770
4 1 -14.893483 -0.655968 10.315496
5 1 -16.506894 -4.016508 10.000524
6 1 5.929305 14.190097 -0.476372
7 1 7.607894 13.739767 -2.656914
8 1 5.299182 13.649845 -0.924049
9 1 4.559367 11.329339 -0.462113
10 1 3.132026 10.317741 -2.674918
11 1 5.850825 8.775137 -3.870340
12 1 0.692808 7.766952 -2.763093
13 1 1.851557 9.942942 -1.501108
14 1 3.389362 12.289849 -2.373426
15 1 2.991224 13.234645 -0.999798
16 1 3.005200 11.128271 -0.767037
17 1 6.327417 8.079972 0.239561
18 1 -13.655448 -3.955802 3.334371
19 1 -14.558709 -3.614277 1.843328
20 1 -10.768626 -4.843635 0.815177
21 1 -8.697499 -8.622230 -20.726867
22 1 -8.081366 -10.659345 -22.197512
23 1 -9.111895 -14.821065 -24.132137
24 1 2.877310 -11.239518 13.151512
25 1 3.599682 -11.457205 14.594581
26 1 5.410705 -12.993724 16.663238
27 1 -4.238617 -10.671358 9.072360
28 1 3.839646 14.603009 -0.999576
29 1 3.768870 13.659132 -1.255524
30 1 2.846169 10.995045 -1.344207
31 1 2.888983 11.690973 -1.330067
ITEM: TIMESTEP
50
ITEM: NUMBER OF ATOMS
32
ITEM: BOX BOUNDS pp pp pp
-24.218291063497695 24.218291063497695
-24.218291063497695 24.218291063497695
-24.218291063497695 24.218291063497695
ITEM: ATOMS id type xs ys zs
0 1 -10.874350 13.658935 11.103768
1 1 -8.807090 7.939807 11.007026
2 1 -11.179830 9.474226 12.847687
3 1 -6.461353 8.900297 8.815345
4 1 -8.364637 7.930333 12.137399
5 1 -7.037480 6.094397 9.027046
6 1 7.891187 13.351936 8.905532
7 1 5.717656 12.991687 7.419068
8 1 3.581972 13.501871 6.623633
9 1 2.597558 12.122542 4.997705
10 1 3.512282 11.578396 8.558369
11 1 -1.893904 11.356471 8.468495
12 1 2.928071 10.844635 8.015169
13 1 5.261364 8.983092 8.875639
14 1 3.962060 10.450780 6.995884
15 1 6.017480 7.636403 10.042122
16 1 4.539978 11.094724 9.820153
17 1 4.511859 8.515982 5.988507
18 1 -17.814173 -16.192280 2.991672
19 1 -17.360239 -17.741932 3.758192
20 1 -14.857202 -20.617462 6.870231
21 1 -3.222366 -20.686703 18.712339
22 1 -2.888496 -23.961799 17.024484
23 1 -5.147654 23.017334 18.035427
24 1 -17.767999 -15.069489 19.228144
25 1 -16.643714 -13.936434 19.474652
26 1 -18.478720 -19.295237 19.602286
27 1 -14.023917 -18.892634 15.706192
28 1 2.549836 11.339468 5.515898
29 1 3.517366 13.149069 5.491141
30 1 2.827089 10.232888 7.110074
31 1 3.824599 13.259350 7.411210
ITEM: TIMESTEP
51
ITEM: NUMBER OF ATOMS
32
ITEM: BOX BOUNDS pp pp pp
-24.218291063497695 24.218291063497695
-24.218291063497695 24.218291063497695
-24.218291063497695 24.218291063497695
ITEM: ATOMS id type xs ys zs
0 1 -13.988900 16.135028 21.219737
1 1 -10.944344 9.751502 21.904943
2 1 -13.156289 10.894881 22.318483
3 1 -13.033572 12.566278 -24.103877
4 1 -13.236674 14.565634 -23.918656
5 1 -16.688523 12.893782 22.027228
6 1 -1.398115 9.129842 9.063700
7 1 -1.059033 5.720960 6.867210
8 1 -2.035380 6.833227 6.937563
9 1 -5.261300 6.368475 5.455306
10 1 -5.149829 8.608462 5.209014
11 1 -4.456012 6.650831 2.685005
12 1 -1.142152 5.259965 5.308641
13 1 -2.873144 9.347655 5.293995
14 1 -2.363899 10.930611 7.966248
15 1 0.429632 7.997807 6.523460
16 1 3.772758 6.493315 6.947394
17 1 3.400070 10.085906 12.244374
18 1 -3.081750 -7.304171 23.352345
19 1 -2.002461 -5.918586 22.596925
20 1 -5.810159 -8.181239 23.895803
21 1 -8.923847 -20.047799 22.184186
22 1 -7.240382 -20.189109 23.161203
23 1 -10.238517 -17.667747 -22.205874
24 1 -6.957029 -12.320488 -15.051427
25 1 -7.058449 -13.723931 -16.612656
26 1 -8.937687 -10.598593 -14.276143
27 1 -3.391164 -8.620299 -21.343890
28 1 1.037569 6.998443 5.093403
29 1 -0.923543 4.437850 5.427984
30 1 -1.704110 7.533695 5.503466
31 1 -1.211032 10.476284 5.587064
ITEM: TIMESTEP
52
ITEM: NUMBER OF ATOMS
32
ITEM: BOX BOUNDS pp pp pp
-24.218291063497695 24.218291063497695
-24.218291063497695 24.218291063497695
-24.218291063497695 24.218291063497695
ITEM: ATOMS id type xs ys zs
0 1 -4.874734 -11.567515 -19.866370
1 1 -4.208187 -11.783156 -23.378615
2 1 -3.996291 -9.557493 23.565163
3 1 -6.013665 -10.586529 23.742741
4 1 -5.228686 -5.720826 23.953700
5 1 -8.371214 -6.431252 -23.528339
6 1 -2.724885 0.939068 10.737830
7 1 -5.506585 -0.782948 8.373248
8 1 -7.310446 -1.544201 9.611837
9 1 -4.650850 0.073582 11.453314
10 1 -3.547700 3.457091 13.993312
11 1 0.071275 2.046862 14.364026
12 1 -7.070045 3.395209 7.101864
13 1 -8.137176 2.675507 10.188855
14 1 -7.418835 0.665159 11.125624
15 1 -7.350156 3.167315 11.648789
16 1 -7.219140 2.656876 14.615654
17 1 -11.162351 6.264084 16.703071
18 1 -2.463563 -14.743476 -17.126863
19 1 -0.886266 -12.636073 -15.227204
20 1 -1.667995 -13.515408 -10.378257
21 1 0.341640 -14.222198 -6.181502
22 1 1.995818 -13.148166 -8.037378
23 1 0.496679 -10.257529 -9.135904
24 1 -7.340863 -9.566796 -9.210658
25 1 -5.023931 -9.448646 -8.222384
26 1 -2.618840 -11.194759 -9.375338
27 1 5.934878 -16.722752 -6.708843
28 1 -9.081508 -0.124859 9.043195
29 1 -5.855691 0.281123 9.821085
30 1 -7.167133 -0.560290 8.459550
31 1 -4.988495 3.950609 12.978309
ITEM: TIMESTEP
53
ITEM: NUMBER OF ATOMS
32
ITEM: BOX BOUNDS pp pp pp
-24.218291063497695 24.218291063497695
-24.218291063497695 24.218291063497695
-24.218291063497695 24.218291063497695
ITEM: ATOMS id type xs ys zs
0 1 -7.975122 -16.017965 -23.023324
1 1 -7.063745 -15.453454 -23.408932
2 1 -8.762557 -17.216928 -23.044817
3 1 -11.563711 -23.046337 -20.203002
4 1 -13.427150 23.312088 -19.300344
5 1 -10.293939 22.126903 -19.308648
6 1 -7.261016 11.433773 6.290642
7 1 -6.246295 7.997032 8.118198
8 1 -7.867104 6.131420 6.692876
9 1 -6.976300 2.612857 6.547337
10 1 -8.739049 4.880474 7.735233
11 1 -8.576565 2.925649 8.587133
12 1 -6.025885 -4.452959 19.091579
13 1 -2.239392 -4.255789 17.141498
14 1 0.103967 -4.205492 17.665907
15 1 -1.800376 -5.208911 12.414623
16 1 -4.065741 -5.813604 9.193035
17 1 -4.937118 -3.041339 7.388077
18 1 17.904554 -16.449893 -11.085485
19 1 16.873976 -17.052209 -10.076501
20 1 10.416949 -17.681384 -12.161990
21 1 -11.276591 -17.048529 -8.180806
22 1 -9.161093 -18.307600 -5.999888
23 1 -4.441174 -15.875263 -2.765379
24 1 10.972499 -1.623982 -2.750702
25 1 11.395029 -4.186307 -4.043288
26 1 12.099332 -5.104251 -6.251908
27 1 3.129019 -10.577594 -10.682365
28 1 -6.673368 7.677877 7.224674
29 1 -6.125967 8.663611 7.123943
30 1 -5.643963 4.989544 6.988566
31 1 -8.322203 1.246924 5.805407
ITEM: TIMESTEP
54
ITEM: NUMBER OF ATOMS
32
ITEM: BOX BOUNDS pp pp pp
-24.218291063497695 24.218291063497695
-24.218291063497695 24.218291063497695
-24.218291063497695 24.218291063497695
ITEM: ATOMS id type xs ys zs
0 1 5.319834 11.250803 -16.436888
1 1 5.002657 9.791297 -19.943046
2 1 7.227955 11.194753 -20.399712
3 1 5.185992 14.173697 -14.802295
4 1 6.307506 10.634826 -12.199392
5 1 5.618834 10.075464 -14.071429
6 1 -1.022933 15.422638 2.608168
7 1 -1.138954 14.191728 6.912879
8 1 -3.352006 11.612556 5.649458
9 1 -0.884005 11.578564 5.338249
10 1 -2.872193 9.949610 6.105073
11 1 -0.808663 7.229157 7.612373
12 1 -9.769337 6.486813 6.466686
13 1 -9.342096 6.586988 3.611935
14 1 -9.214293 6.746059 5.744860
15 1 -12.685038 8.426138 2.891167
16 1 -9.410588 8.452249 2.264973
17 1 -8.135720 11.622330 2.123210
18 1 15.501379 -17.514337 -21.146793
19 1 16.317711 -15.997692 -22.290670
20 1 13.202073 -16.073958 -17.250879
21 1 9.910864 -22.223383 -16.940775
22 1 11.220491 -24.170107 -18.492151
23 1 16.084265 -20.553891 -19.508928
24 1 3.152632 -20.433127 -10.386231
25 1 3.271043 -18.955086 -11.427008
26 1 3.408434 -14.924252 -12.283934
27 1 5.046024 -21.694746 -14.025128
28 1 -1.149625 12.263800 6.700231
29 1 -2.030441 13.004335 6.564682
30 1 -1.179527 11.142478 4.218309
31 1 -0.241671 12.439607 7.384123
ITEM: TIMESTEP
55
ITEM: NUMBER OF ATOMS
32
ITEM: BOX BOUNDS pp pp pp
-24.218291063497695 24.218291063497695
-24.218291063497695 24.218291063497695
-24.218291063497695 24.218291063497695
ITEM: ATOMS id type xs ys zs
0 1 4.753701 5.243829 -1.354472
1 1 5.086865 2.788882 -3.102272
2 1 4.561952 5.394604 -5.792924
3 1 9.157254 8.632822 -9.776809
4 1 10.579726 10.646906 -8.415512
5 1 9.873014 12.044510 -10.572444
6 1 3.012190 7.272756 1.741636
7 1 2.227627 6.657588 4.098238
8 1 3.858725 9.677990 5.601719
9 1 5.090532 4.775522 5.240294
10 1 3.355033 7.265706 2.188408
11 1 2.264696 10.922489 3.600774
12 1 -1.490440 -5.337887 -15.330130
13 1 -3.580264 -9.852839 -15.317547
14 1 -4.005790 -9.855332 -17.380049
15 1 -5.669729 -12.449905 -17.461280
16 1 -7.073843 -11.634685 -20.615571
17 1 -3.897143 -10.508707 -24.195310
18 1 15.279222 -18.992852 -5.731077
19 1 16.373419 -19.354967 -3.248494
20 1 15.990703 -22.743421 -3.374126
21 1 19.484277 -17.381151 -7.107652
22 1 21.969773 -15.828408 -5.706181
23 1 18.419378 -15.000392 -7.132406
24 1 18.065296 -4.101452 -7.579710
25 1 18.398662 -2.717129 -9.080933
26 1 17.195191 -8.219313 -8.881014
27 1 18.063132 -20.479359 -8.638181
28 1 6.895155 7.914013 6.292547
29 1 4.017611 6.898930 3.712601
30 1 4.775417 8.740605 4.910242
31 1 5.638539 5.699369 3.959268
ITEM: TIMESTEP
56
ITEM: NUMBER OF ATOMS
32
ITEM: BOX BOUNDS pp pp pp
-24.218291063497695 24.218291063497695
-24.218291063497695 24.218291063497695
-24.218291063497695 24.218291063497695
ITEM: ATOMS id type xs ys zs
0 1 22.984991 12.096290 -19.598387
1 1 22.633212 13.005008 -19.689326
2 1 21.484026 16.304395 -21.128156
3 1 20.866042 13.113937 -17.199540
4 1 18.325784 14.248548 -17.143425
5 1 15.280236 14.809325 -19.922756
6 1 2.023684 13.885613 1.284962
7 1 2.163833 14.525925 2.445272
8 1 1.721995 14.238400 4.506120
9 1 -0.494702 14.422752 1.236806
10 1 -2.696823 13.383003 1.633330
11 1 -4.785962 10.539489 3.752166
12 1 -18.975189 -12.142930 -1.876683
13 1 -21.300126 -8.377381 -2.579960
14 1 -18.156914 -8.206335 -4.253928
15 1 -17.573668 -2.403250 -5.905760
16 1 -18.621496 0.779575 -7.100032
17 1 -14.291206 -1.015633 -4.224133
18 1 15.488537 -9.266491 -6.767617
19 1 16.880860 -9.357103 -5.128878
20 1 19.275877 -11.931223 -2.785003
21 1 22.000801 -14.441287 6.516674
22 1 22.661227 -16.863214 6.621055
23 1 -21.311540 -15.142678 7.010268
24 1 -7.950279 -8.120410 -11.184105
25 1 -8.951490 -7.677731 -12.919069
26 1 -11.376169 -9.391021 -9.914380
27 1 -20.841222 -18.663259 -0.386477
28 1 0.804481 13.947410 2.650770
29 1 4.529051 13.325333 1.986848
30 1 1.551237 14.112899 3.608298
31 1 -2.445882 13.478888 2.549310
ITEM: TIMESTEP
57
ITEM: NUMBER OF ATOMS
32
ITEM: BOX BOUNDS pp pp pp
-24.218291063497695 24.218291063497695
-24.218291063497695 24.218291063497695
-24.218291063497695 24.218291063497695
ITEM: ATOMS id type xs ys zs
0 1 14.849921 -20.397549 -17.308230
1 1 11.944787 -21.637094 -18.781224
2 1 14.491643 -22.773414 -18.583688
3 1 17.214719 22.659346 -15.461885
4 1 16.586857 20.345754 -12.318204
5 1 16.017666 16.280004 -12.609117
6 1 1.143387 8.866329 0.055769
7 1 -2.028128 7.134907 0.594303
8 1 -0.706429 7.987358 -1.889168
9 1 -4.942892 9.083968 -1.661989
10 1 -1.221665 13.055329 -1.301203
11 1 -2.502362 10.901754 -3.058654
12 1 -16.908774 8.477051 1.240970
13 1 -17.782464 9.762501 -1.189081
14 1 -18.640827 9.166667 -2.785506
15 1 -18.628287 11.519417 -2.172491
16 1 -15.888854 10.136841 0.363742
17 1 -17.473075 9.764609 2.134492
18 1 -19.608263 2.755601 0.162545
19 1 -19.671184 5.255040 0.407589
20 1 -17.784589 0.751173 0.171665
21 1 -11.187853 -11.337410 -11.372270
22 1 -11.463099 -9.179398 -12.420191
23 1 -12.232548 -4.726169 -13.761628
24 1 -21.196323 2.060566 -17.900027
25 1 -21.457031 4.403190 -17.167768
26 1 -19.838678 1.959959 -16.250964
27 1 -21.617675 2.953035 -15.266511
28 1 -1.148681 10.459204 -0.447470
29 1 -0.818491 8.144574 0.347669
30 1 -0.907074 10.694208 -1.394918
31 1 -4.594637 11.023001 -2.698952
ITEM: TIMESTEP
58
ITEM: NUMBER OF ATOMS
32
ITEM: BOX BOUNDS pp pp pp
-24.218291063497695 24.218291063497695
-24.218291063497695 24.218291063497695
-24.218291063497695 24.218291063497695
ITEM: ATOMS id type xs ys zs
0 1 -19.335805 -22.969841 -21.383341
1 1 -17.360967 -19.980362 -23.617056
2 1 -14.637418 -21.043576 -22.314033
3 1 -16.162733 -20.082989 -20.471459
4 1 -12.586624 -18.752070 -21.582266
5 1 -12.147915 -16.312097 -18.034583
6 1 -16.723503 8.185570 19.040764
7 1 -11.187669 9.386992 18.443432
8 1 -12.993127 8.656397 17.462948
9 1 -16.655763 6.983812 16.185803
10 1 -14.364581 10.891138 11.709993
11 1 -15.913667 13.042015 10.525889
12 1 -3.613146 -6.593746 10.541873
13 1 -6.780651 -7.060391 12.542268
14 1 -9.069885 -7.354489 9.547243
15 1 -8.667102 -3.582315 7.921613
16 1 -10.186124 -5.306230 6.285953
17 1 -7.271484 -4.790181 6.403165
18 1 -19.730921 -8.472765 -11.868206
19 1 -20.875294 -9.633086 -11.034411
20 1 -19.868445 -6.035250 -10.040994
21 1 -17.789565 -4.119186 -5.548657
22 1 -15.847239 -3.184742 -3.541577
23 1 -11.866049 -1.519076 -3.620746
24 1 -19.425987 -7.278627 -7.194457
25 1 -16.952142 -8.360984 -8.114066
26 1 -21.518743 -12.870344 -3.281285
27 1 -18.457040 -7.213789 -5.276473
28 1 -14.942407 6.496163 18.610352
29 1 -12.525663 8.347118 17.468282
30 1 -14.073968 8.399721 15.460737
31 1 -17.901977 7.749066 16.856611
ITEM: TIMESTEP
59
ITEM: NUMBER OF ATOMS
32
ITEM: BOX BOUNDS pp pp pp
-24.218291063497695 24.218291063497695
-24.218291063497695 24.218291063497695
-24.218291063497695 24.218291063497695
ITEM: ATOMS id type xs ys zs
0 1 19.391486 23.540900 -18.794002
1 1 21.722604 -23.836524 -18.027833
2 1 20.726799 -21.277139 -16.609289
3 1 19.217655 -17.029537 -16.586323
4 1 16.911413 -15.579186 -14.920462
5 1 18.006812 -16.316178 -13.251680
6 1 -16.683815 15.959117 10.856861
7 1 -10.975747 16.300179 9.053193
8 1 -13.822230 16.414577 8.328425
9 1 -16.173491 18.567879 10.106480
10 1 -17.597811 16.808135 12.034478
11 1 -17.847942 13.301651 12.025706
12 1 -14.243261 5.278908 19.996968
13 1 -18.496045 7.963149 18.908364
14 1 -20.760597 7.734334 20.255472
15 1 -18.751150 5.298196 23.898168
16 1 -21.076157 2.121736 22.199695
17 1 -19.259085 -2.270601 20.217009
18 1 -23.583081 21.681375 -14.776383
19 1 -20.176783 20.616128 -13.716949
20 1 -17.076891 21.205983 -14.465243
21 1 -18.893697 -19.074683 -0.286716
22 1 -19.900110 -19.774134 1.187748
23 1 -19.955023 -16.525435 -0.910622
24 1 22.130800 21.641117 2.476303
25 1 21.886414 22.375681 0.827981
26 1 -21.127755 24.057250 -2.526614
27 1 -14.703969 -19.166119 -11.868905
28 1 -12.480680 14.173101 10.554723
29 1 -11.435132 14.648461 9.517379
30 1 -12.701969 15.971525 9.955820
31 1 -10.869086 14.331831 8.736991
ITEM: TIMESTEP
60
ITEM: NUMBER OF ATOMS
32
ITEM: BOX BOUNDS pp pp pp
-24.218291063497695 24.218291063497695
-24.218291063497695 24.218291063497695
-24.218291063497695 24.218291063497695
ITEM: ATOMS id type xs ys zs
0 1 12.880180 -19.845036 -13.368782
1 1 15.605725 -19.996337 -13.513610
2 1 15.352189 -19.393529 -16.088839
3 1 15.870001 -17.313081 -13.487183
4 1 14.365740 -16.461266 -12.928247
5 1 15.335747 -17.931479 -11.780231
6 1 -17.417846 19.680679 9.398054
7 1 -15.319193 20.060307 11.956800
8 1 -13.835742 18.576820 12.086764
9 1 -13.442391 20.119086 10.311288
10 1 -16.154223 21.998064 8.396143
11 1 -17.239218 -23.676393 10.317512
12 1 18.273476 -4.627404 13.476062
13 1 18.152494 -3.722866 11.656948
14 1 19.977022 -4.825306 9.419920
15 1 16.986612 -6.995458 9.982742
16 1 20.323865 -7.144162 9.462743
17 1 22.613693 -10.248118 13.433078
18 1 7.330846 -18.224724 0.144847
19 1 10.018397 -17.486033 -0.238139
20 1 13.427469 -17.841754 -6.006464
21 1 9.702429 15.755366 -4.897008
22 1 9.676941 17.489880 -5.140564
23 1 13.381825 17.649621 1.253634
24 1 14.268432 20.140150 0.028239
25 1 12.706899 21.487904 1.441113
26 1 16.249220 15.622154 1.763799
27 1 12.544016 20.611084 -4.282409
28 1 -13.670980 19.879890 11.130480
29 1 -17.065576 18.441720 12.947872
30 1 -15.249443 19.102749 10.090334
31 1 -15.345149 20.509853 10.602429
ITEM: TIMESTEP
61
ITEM: NUMBER OF ATOMS
32
ITEM: BOX BOUNDS pp pp pp
-24.218291063497695 24.218291063497695
-24.218291063497695 24.218291063497695
-24.218291063497695 24.218291063497695
ITEM: ATOMS id type xs ys zs
0 1 23.135796 -16.586353 -9.100981
1 1 20.110414 -11.663039 -10.652850
2 1 21.942994 -12.796193 -12.386135
3 1 17.340966 -10.276441 -12.141542
4 1 14.579118 -9.982206 -15.183816
5 1 15.021050 -7.499516 -18.240425
6 1 -16.180157 15.716248 12.708330
7 1 -13.883755 19.350865 12.097623
8 1 -15.857042 17.817123 14.635531
9 1 -14.516761 15.709896 14.634814
10 1 -11.087867 14.827241 14.807793
11 1 -12.985713 12.664652 17.024566
12 1 13.502032 -3.722627 16.429131
13 1 14.667128 -1.980218 14.921806
14 1 12.941487 0.270065 15.690479
15 1 18.810510 5.152244 18.036823
16 1 14.696711 0.713514 19.730446
17 1 13.586431 2.139362 18.162164
18 1 17.087076 23.909764 -8.737609
19 1 16.410476 -23.660340 -9.979144
20 1 13.774098 -23.166573 -13.656061
21 1 19.383375 22.277055 -1.201793
22 1 20.373254 -23.203340 -1.820946
23 1 17.795995 -22.288936 -4.321002
24 1 9.517806 11.280635 0.953911
25 1 8.761539 13.948056 -0.319829
26 1 10.532285 17.159966 -5.379778
27 1 18.939721 -20.628383 -4.866158
28 1 -15.334777 19.079089 15.275518
29 1 -13.817471 18.669538 13.598679
30 1 -17.816278 18.655034 14.985465
31 1 -15.629288 17.179904 15.297395
ITEM: TIMESTEP
62
ITEM: NUMBER OF ATOMS
32
ITEM: BOX BOUNDS pp pp pp
-24.218291063497695 24.218291063497695
-24.218291063497695 24.218291063497695
-24.218291063497695 24.218291063497695
ITEM: ATOMS id type xs ys zs
0 1 0.931861 -14.973277 -12.783808
1 1 -0.529891 -14.227404 -13.858776
2 1 1.147846 -15.561644 -11.253802
3 1 2.574402 -14.533823 -11.563129
4 1 2.055908 -12.427284 -10.388289
5 1 0.401736 -9.644323 -10.425636
6 1 -24.156651 11.750520 10.033800
7 1 -19.026574 8.368729 11.224851
8 1 -15.920874 7.451523 12.936267
9 1 -14.870157 9.183627 11.563613
10 1 -12.506936 6.206643 13.752275
11 1 -14.675591 4.833478 14.066068
12 1 -18.357782 3.090498 -22.222511
13 1 -16.915104 3.970150 -23.056054
14 1 -19.948281 3.721677 23.197016
15 1 -21.211166 5.267321 23.565932
16 1 23.265438 6.434707 23.653586
17 1 -23.824983 3.959243 23.165644
18 1 22.710737 20.235413 2.571820
19 1 21.951597 18.456585 2.474225
20 1 17.150884 21.067432 -1.142504
21 1 23.611304 -22.775365 -16.757345
22 1 21.840146 -23.151833 -18.172891
23 1 22.315702 23.762789 -10.466799
24 1 12.893242 6.172715 -16.286259
25 1 13.797776 5.817561 -15.608716
26 1 10.516450 8.466048 -17.954435
27 1 14.726573 19.525391 -9.480145
28 1 -18.086614 8.064252 8.507626
29 1 -19.151051 9.719327 9.698683
30 1 -16.399426 8.381461 10.570293
31 1 -15.655844 8.854936 13.033677
ITEM: TIMESTEP
63
ITEM: NUMBER OF ATOMS
32
ITEM: BOX BOUNDS pp pp pp
-24.218291063497695 24.218291063497695
-24.218291063497695 24.218291063497695
-24.218291063497695 24.218291063497695
ITEM: ATOMS id type xs ys zs
0 1 -7.658372 6.428941 6.738725
1 1 -9.303708 6.822557 5.019853
2 1 -6.883987 5.457005 5.888293
3 1 -9.744063 5.009467 6.997934
4 1 -11.215644 6.254357 5.755799
5 1 -13.591080 7.353510 1.213353
6 1 -14.186951 17.506217 22.477370
7 1 -12.849579 17.486836 20.557946
8 1 -14.582584 17.762291 18.954620
9 1 -16.118151 19.302560 18.473986
10 1 -14.894679 17.586486 16.855811
11 1 -15.139360 15.145784 15.800102
12 1 -19.127525 0.645729 11.352178
13 1 -17.510966 3.211086 12.786151
14 1 -17.818090 2.243578 16.573599
15 1 -23.572036 1.817990 15.556333
16 1 21.922151 -1.692768 13.615066
17 1 22.695076 -3.481552 10.078673
18 1 12.734005 3.839262 -7.532388
19 1 13.406041 4.800022 -9.659085
20 1 15.300590 5.180101 -13.280045
21 1 21.292546 11.382035 2.914450
22 1 19.374253 11.271109 2.350344
23 1 21.830025 9.872017 1.301411
24 1 -20.763326 23.841455 -13.067898
25 1 -18.388496 22.985410 -12.240663
26 1 -15.962021 21.227295 -9.523210
27 1 20.016398 14.064086 -8.976971
28 1 -15.209468 19.027694 16.569802
29 1 -14.064845 17.607402 19.173028
30 1 -14.615659 15.930647 16.588148
31 1 -15.756394 19.294250 19.410768
ITEM: TIMESTEP
64
ITEM: NUMBER OF ATOMS
32
ITEM: BOX BOUNDS pp pp pp
-24.218291063497695 24.218291063497695
-24.218291063497695 24.218291063497695
-24.218291063497695 24.218291063497695
ITEM: ATOMS id type xs ys zs
0 1 -2.734939 14.257396 12.484303
1 1 1.160068 15.493488 10.938160
2 1 0.498316 17.919429 9.622990
3 1 3.435855 12.574284 11.660297
4 1 7.451595 11.859215 12.894737
5 1 11.644819 11.244612 11.101447
6 1 -15.258121 13.231650 19.879865
7 1 -14.978330 9.487560 22.176378
8 1 -13.033285 8.669413 23.109317
9 1 -12.737528 10.064311 22.473737
10 1 -13.874218 12.246442 22.226921
11 1 -15.882638 13.934220 21.100805
12 1 20.129479 2.160359 8.169525
13 1 16.333218 2.265210 9.617702
14 1 18.023524 1.229528 8.663626
15 1 15.853173 -0.405054 10.695321
16 1 16.060470 -2.225118 10.669366
17 1 13.492942 -1.371042 13.416621
18 1 -19.708982 16.185474 -10.756467
19 1 -20.805747 15.261457 -12.200031
20 1 -20.918215 15.377156 -16.296829
21 1 18.690800 15.048220 3.504501
22 1 16.861207 14.630842 4.227111
23 1 23.216873 14.382574 3.510077
24 1 21.088385 24.066721 -1.313609
25 1 22.628913 22.965146 -0.238100
26 1 19.063330 15.121102 -0.382533
27 1 23.183923 11.944246 -0.777153
28 1 -12.765663 10.821178 23.304144
29 1 -15.585811 8.582332 23.545043
30 1 -14.026115 9.381456 23.199892
31 1 -13.633858 11.102306 23.965493
ITEM: TIMESTEP
65
ITEM: NUMBER OF ATOMS
32
ITEM: BOX BOUNDS pp pp pp
-24.218291063497695 24.218291063497695
-24.218291063497695 24.218291063497695
-24.218291063497695 24.218291063497695
ITEM: ATOMS id type xs ys zs
0 1 5.995608 8.792274 18.508862
1 1 8.801860 6.846264 17.896321
2 1 10.435894 4.706720 16.307706
3 1 12.144898 4.564030 14.657061
4 1 9.352949 7.637924 13.842994
5 1 7.283440 10.896045 11.239456
6 1 -18.336238 10.055777 11.805573
7 1 -16.228041 12.455177 10.926405
8 1 -16.238032 13.157156 8.583382
9 1 -14.358848 12.884982 8.988163
10 1 -14.592031 13.806046 7.218396
11 1 -15.303444 17.119256 8.837776
12 1 9.706020 -19.505682 -17.971183
13 1 13.953607 -19.564532 -16.425090
14 1 13.556865 -17.095778 -17.079313
15 1 10.370810 -21.375914 -15.138677
16 1 10.046756 -22.188188 -12.946428
17 1 6.377173 -19.379759 -17.312936
18 1 16.708487 6.122620 -2.087606
19 1 17.683565 3.726914 -0.731895
20 1 20.675240 5.071314 -0.028146
21 1 11.428165 5.715407 -12.874674
22 1 13.769022 4.673645 -13.672465
23 1 15.283574 9.531174 -11.539232
24 1 8.624705 10.539807 -12.770654
25 1 9.382473 9.117575 -10.693593
26 1 8.817314 8.569448 -14.236312
27 1 16.383372 8.297124 -10.851531
28 1 -16.049130 13.643153 11.320467
29 1 -16.332858 12.308184 9.907653
30 1 -14.961719 14.108787 9.636651
31 1 -15.236466 13.373195 10.888127
ITEM: TIMESTEP
66
ITEM: NUMBER OF ATOMS
32
ITEM: BOX BOUNDS pp pp pp
-24.218291063497695 24.218291063497695
-24.218291063497695 24.218291063497695
-24.218291063497695 24.218291063497695
ITEM: ATOMS id type xs ys zs
0 1 -4.079295 3.689343 15.067601
1 1 -2.073787 5.558303 16.084899
2 1 -4.878698 6.496470 17.549619
3 1 -8.131610 8.335413 22.432798
4 1 -4.032681 8.975347 22.739937
5 1 -3.021437 8.163946 -22.053819
6 1 -14.933118 15.389024 -24.117796
7 1 -16.204064 14.218859 21.105390
8 1 -15.598888 13.167048 23.818638
9 1 -15.644846 17.002298 -23.534070
10 1 -19.217781 22.103120 -21.672088
11 1 -18.142553 19.077355 23.960348
12 1 10.927248 20.895000 -22.474205
13 1 13.015362 24.083325 -22.165473
14 1 15.537833 -23.672454 -19.144099
15 1 15.031193 -21.621489 -15.778302
16 1 15.533303 -18.381734 -14.176229
17 1 13.407754 -18.876425 -11.834517
18 1 2.050946 7.004306 -8.156078
19 1 3.346209 8.882036 -9.014129
20 1 1.058708 9.808429 -14.607638
21 1 20.614981 11.463414 -17.295924
22 1 21.840774 9.758367 -17.757066
23 1 20.308566 12.810650 -14.549934
24 1 -2.196865 12.297764 -6.947770
25 1 -3.068286 13.636100 -5.060094
26 1 -0.255474 11.774572 -4.955578
27 1 4.203648 8.132477 -8.121592
28 1 -14.794005 14.893416 22.936035
29 1 -15.707880 13.419536 21.110501
30 1 -14.258385 13.796828 23.042499
31 1 -16.040241 17.704305 -22.087759
ITEM: TIMESTEP
67
ITEM: NUMBER OF ATOMS
32
ITEM: BOX BOUNDS pp pp pp
-24.218291063497695 24.218291063497695
-24.218291063497695 24.218291063497695
-24.218291063497695 24.218291063497695
ITEM: ATOMS id type xs ys zs
0 1 -12.693891 9.323515 23.028956
1 1 -13.667470 12.123408 23.435221
2 1 -14.098708 9.379958 23.147322
3 1 -14.040881 10.303359 19.011209
4 1 -11.363263 10.530869 24.004533
5 1 -13.242080 12.076675 -19.231890
6 1 -17.412344 17.535847 9.314824
7 1 -18.425218 14.538972 6.898861
8 1 -16.054699 12.360782 7.332875
9 1 -18.458264 13.023084 7.649697
10 1 -21.764362 15.121901 10.053926
11 1 -20.449535 13.436265 11.884883
12 1 18.133583 -12.819936 -13.234605
13 1 19.103892 -11.476564 -14.752726
14 1 20.316591 -13.568047 -14.230593
15 1 17.562922 -13.991310 -17.239851
16 1 14.464923 -14.052280 -16.388185
17 1 12.918480 -13.528274 -18.070671
18 1 -4.282984 8.290514 17.634701
19 1 -4.139898 5.787636 14.432308
20 1 -1.453760 7.915041 16.741927
21 1 9.696931 -20.736045 -15.618883
22 1 7.748376 -19.455485 -16.287615
23 1 4.142159 -20.360505 -17.844963
24 1 8.368184 18.889399 9.969809
25 1 5.667826 15.991438 9.669304
26 1 7.199254 20.677509 10.663420
27 1 1.272904 23.198142 18.294350
28 1 -19.086890 12.704782 5.470637
29 1 -19.197288 13.343648 5.982884
30 1 -16.790870 12.047216 6.515440
31 1 -17.586064 13.419684 5.842062
ITEM: TIMESTEP
68
ITEM: NUMBER OF ATOMS
32
ITEM: BOX BOUNDS pp pp pp
-24.218291063497695 24.218291063497695
-24.218291063497695 24.218291063497695
-24.218291063497695 24.218291063497695
ITEM: ATOMS id type xs ys zs
0 1 1.307329 9.762031 -12.728912
1 1 4.450261 9.978413 -14.793272
2 1 5.954710 12.390284 -15.458821
3 1 5.748223 8.013869 -14.350056
4 1 5.583435 9.448994 -16.327829
5 1 5.104593 13.876925 -17.632939
6 1 -23.256819 18.412375 10.306078
7 1 -21.103665 15.884829 9.840060
8 1 -22.053509 19.072188 9.612852
9 1 21.273034 21.087219 11.993588
10 1 20.873126 16.730288 13.788248
11 1 20.101084 18.406156 7.626986
12 1 13.909373 -14.462118 -4.787087
13 1 16.035172 -14.669075 -3.889405
14 1 14.027164 -13.191639 -3.411877
15 1 12.865761 -12.182066 -4.011859
16 1 8.702054 -10.219724 -3.059465
17 1 11.558058 -10.619900 -4.691848
18 1 -5.544704 -21.309371 -19.401969
19 1 -7.671137 -20.486245 -18.683256
20 1 -12.425553 -15.575618 -20.965640
21 1 6.208146 -21.527001 -21.685892
22 1 7.343987 -19.262194 -22.789457
23 1 8.040952 -23.983775 20.928807
24 1 8.610410 -21.742484 20.650014
25 1 10.224049 -20.193938 18.765796
26 1 7.784229 -15.719463 18.905834
27 1 3.119130 22.053939 20.941189
28 1 -20.202145 17.377961 7.733544
29 1 -20.354891 15.960957 7.089172
30 1 -16.694686 18.703804 8.450391
31 1 -22.164228 18.392559 9.456967
ITEM: TIMESTEP
69
ITEM: NUMBER OF ATOMS
32
ITEM: BOX BOUNDS pp pp pp
-24.218291063497695 24.218291063497695
-24.218291063497695 24.218291063497695
-24.218291063497695 24.218291063497695
ITEM: ATOMS id type xs ys zs
0 1 6.002178 3.133631 20.572196
1 1 8.853682 7.193708 22.675808
2 1 8.689379 7.492549 20.438347
3 1 12.402317 11.520625 -21.583216
4 1 15.105263 14.600472 -23.680456
5 1 14.907479 11.457879 23.478091
6 1 -21.978726 21.354939 16.006091
7 1 -19.321402 -23.385373 16.255325
8 1 -20.045365 -22.151372 19.846202
9 1 -18.752305 -24.171203 19.269618
10 1 -20.822277 -21.064945 19.655213
11 1 23.644559 -21.842232 20.048279
12 1 -20.769975 2.518575 -17.179618
13 1 -19.771570 2.001825 -14.141998
14 1 -16.618486 2.084483 -14.994726
15 1 -18.276774 5.476702 -15.135919
16 1 -17.178761 6.238318 -17.487522
17 1 -22.685964 6.327597 -19.383313
18 1 -0.615217 -12.973412 14.167714
19 1 -1.576971 -15.232405 14.567350
20 1 -6.055783 -10.030619 12.205714
21 1 0.875109 -5.397198 6.124551
22 1 1.966595 -3.097249 5.689770
23 1 0.891795 -4.953567 3.430304
24 1 6.378892 -17.756413 9.062572
25 1 5.452737 -15.883848 9.783632
26 1 5.972839 -10.614226 8.749802
27 1 9.950504 -8.939917 8.911948
28 1 -18.269037 -23.236486 18.315113
29 1 -18.034522 -24.094772 16.147720
30 1 -18.968499 -22.590415 18.979848
31 1 -17.680073 -21.305621 20.014804
ITEM: TIMESTEP
70
ITEM: NUMBER OF ATOMS
32
ITEM: BOX BOUNDS pp pp pp
-24.218291063497695 24.218291063497695
-24.218291063497695 24.218291063497695
-24.218291063497695 24.218291063497695
ITEM: ATOMS id type xs ys zs
0 1 -1.643878 15.165435 3.405894
1 1 -2.515396 15.274624 5.348844
2 1 -3.359062 13.176118 5.990265
3 1 -2.244425 16.717819 10.847193
4 1 -0.738635 15.300003 12.356991
5 1 -0.289110 18.263829 14.875030
6 1 17.783632 -21.480053 8.648991
7 1 20.654509 -19.918365 10.186350
8 1 19.622583 -22.099492 11.642496
9 1 21.655054 -21.586154 13.343689
10 1 19.006740 -21.427551 13.991969
11 1 13.838846 -20.814715 16.367922
12 1 -21.803090 -3.239339 -20.903802
13 1 -21.043572 -5.160429 -20.510153
14 1 -20.721088 -2.207374 -20.605795
15 1 -23.095023 -0.464522 -19.575187
16 1 -23.306566 4.543729 -20.284265
17 1 -18.495815 2.978681 -17.985610
18 1 0.387618 -3.339159 5.412434
19 1 0.307069 -2.591146 4.227072
20 1 3.227784 -1.615951 5.019541
21 1 7.041754 -1.171270 6.271533
22 1 5.785482 -2.199818 5.626784
23 1 10.615200 2.136293 7.602304
24 1 3.460352 -4.262348 11.846084
25 1 1.195150 -5.546337 13.746017
26 1 1.191872 -8.525554 14.673178
27 1 6.227706 1.949546 9.847695
28 1 19.990861 -21.240689 9.200543
29 1 20.023836 -19.783666 8.688040
30 1 21.871853 -21.779255 12.391148
31 1 20.324011 -23.641896 9.503673
ITEM: TIMESTEP
71
ITEM: NUMBER OF ATOMS
32
ITEM: BOX BOUNDS pp pp pp
-24.218291063497695 24.218291063497695
-24.218291063497695 24.218291063497695
-24.218291063497695 24.218291063497695
ITEM: ATOMS id type xs ys zs
0 1 -4.489330 12.614075 1.924799
1 1 -3.969023 14.496300 -0.613392
2 1 -5.444081 14.497561 -3.315756
3 1 -3.916003 16.312354 -3.943330
4 1 -2.275485 16.747778 -1.411340
5 1 1.499699 16.153956 -2.103770
6 1 19.766429 20.872412 15.554626
7 1 19.228626 21.782482 15.030134
8 1 19.820429 22.493525 16.660457
9 1 21.358264 22.821774 14.170543
10 1 23.352824 23.254196 9.394568
11 1 -24.179859 -23.032183 9.239920
12 1 -19.814328 -14.651320 18.110025
13 1 -20.681051 -14.205818 21.177815
14 1 -20.745277 -15.682029 17.258865
15 1 -21.973242 -19.405712 18.654716
16 1 -21.935708 -19.832823 20.653045
17 1 -19.789433 -19.050043 18.819255
18 1 -1.344506 -3.750973 -1.930323
19 1 0.011091 -4.491553 -3.155313
20 1 -0.326701 -3.125094 0.341589
21 1 -9.842601 -2.973590 6.492749
22 1 -9.191099 -3.471978 3.663647
23 1 -9.325905 -3.552693 6.850767
24 1 -6.903250 -19.224328 10.973560
25 1 -4.530304 -20.338603 9.176207
26 1 -5.217900 -17.972727 5.416011
27 1 -10.178008 -8.073058 9.761804
28 1 17.864526 22.646908 14.328071
29 1 18.549058 21.903786 15.589361
30 1 20.265535 23.724827 12.815747
31 1 18.295612 23.029168 16.848111
ITEM: TIMESTEP
72
ITEM: NUMBER OF ATOMS
32
ITEM: BOX BOUNDS pp pp pp
-24.218291063497695 24.218291063497695
-24.218291063497695 24.218291063497695
-24.218291063497695 24.218291063497695
ITEM: ATOMS id type xs ys zs
0 1 11.742754 18.009024 -19.332617
1 1 9.140305 17.885760 -19.057993
2 1 8.100357 20.404148 -17.475762
3 1 10.525373 19.518375 -18.724426
4 1 13.240670 22.238869 -18.506582
5 1 13.717223 23.251286 -16.046216
6 1 22.346416 13.065612 12.544838
7 1 18.965283 8.896563 13.883923
8 1 20.376014 11.544589 13.298463
9 1 19.493673 10.105486 11.854575
10 1 17.290267 11.175595 15.718672
11 1 17.220879 14.032434 16.038297
12 1 -5.861762 -21.458197 16.867087
13 1 -6.287757 -19.584886 17.008279
14 1 -7.459091 -17.535977 17.796076
15 1 -12.761451 -14.288591 19.221475
16 1 -11.383874 -17.359963 20.724838
17 1 -12.438787 -14.566823 21.562810
18 1 -6.935746 -8.683716 -2.240152
19 1 -4.829107 -9.166641 -1.825614
20 1 -2.697964 -9.250857 3.968981
21 1 1.221176 -9.220442 15.333896
22 1 1.034357 -9.121244 18.127932
23 1 0.232860 -5.615851 20.916749
24 1 -8.773942 -12.349185 5.088886
25 1 -10.189975 -12.635027 3.942870
26 1 -11.808183 -7.327539 1.305491
27 1 -1.692495 -5.397213 11.548926
28 1 20.697466 10.176463 11.367695
29 1 19.792707 11.136215 13.092969
30 1 21.809680 10.624131 11.090519
31 1 18.905461 11.359113 12.316472
ITEM: TIMESTEP
73
ITEM: NUMBER OF ATOMS
32
ITEM: BOX BOUNDS pp pp pp
-24.218291063497695 24.218291063497695
-24.218291063497695 24.218291063497695
-24.218291063497695 24.218291063497695
ITEM: ATOMS id type xs ys zs
0 1 -0.797664 1.236359 -9.593964
1 1 0.008947 1.981205 -8.634534
2 1 -2.795643 1.266047 -11.173099
3 1 -1.754566 5.337893 -7.468702
4 1 -3.513139 6.431620 -5.692950
5 1 -7.632141 9.764794 -3.005879
6 1 -12.000993 2.706414 18.634046
7 1 -13.357488 5.909232 14.707710
8 1 -13.935651 5.188583 12.252497
9 1 -13.327434 3.721056 14.027314
10 1 -12.333289 1.697736 12.120986
11 1 -13.864302 2.867319 9.785538
12 1 -4.858710 22.177241 20.825512
13 1 -7.214278 19.750744 21.400662
14 1 -9.139169 22.191720 23.777550
15 1 -9.507705 -23.890359 23.798703
16 1 -8.954271 23.669476 -23.399063
17 1 -7.663722 -21.746554 22.204228
18 1 -6.231997 -20.144013 -1.856806
19 1 -7.955497 -18.913752 -1.159920
20 1 -9.146537 -21.583554 -0.353511
21 1 -7.656169 -19.579527 -10.405888
22 1 -7.657633 -17.807054 -8.914025
23 1 -11.727586 -15.986216 -10.008560
24 1 -9.776996 -13.920566 0.542911
25 1 -9.918130 -14.444838 -0.901338
26 1 -10.717447 -10.587696 -0.908712
27 1 -13.690119 -16.422817 -1.378252
28 1 -12.446801 5.922242 13.522188
29 1 -13.837300 4.320133 16.055160
30 1 -13.077540 4.825478 14.616363
31 1 -13.355341 5.397379 12.779020
ITEM: TIMESTEP
74
ITEM: NUMBER OF ATOMS
32
ITEM: BOX BOUNDS pp pp pp
-24.218291063497695 24.218291063497695
-24.218291063497695 24.218291063497695
-24.218291063497695 24.218291063497695
ITEM: ATOMS id type xs ys zs
0 1 5.466471 9.522024 -5.616948
1 1 5.143803 6.553219 -6.484959
2 1 6.862312 4.458715 -4.283956
3 1 4.166958 8.464059 -5.033650
4 1 3.036038 10.349538 -6.917730
5 1 4.215853 12.325017 -7.580156
6 1 -18.475335 3.620597 14.253324
7 1 -16.728611 7.421690 16.074730
8 1 -15.773279 5.610145 17.372487
9 1 -21.293596 6.595978 15.576737
10 1 -20.863497 5.267243 15.483324
11 1 -22.313874 9.361139 17.337726
12 1 4.047024 -22.476157 12.548821
13 1 2.343687 -21.417083 12.965121
14 1 -0.550415 -21.462741 11.832306
15 1 -4.538218 -21.401322 12.398455
16 1 -4.243924 -20.962053 10.520439
17 1 -6.712139 -23.094992 10.017846
18 1 0.756602 -20.680398 -8.035447
19 1 0.202544 -21.631160 -10.176690
20 1 -3.278640 -20.716346 -15.548354
21 1 -9.402009 20.509705 -19.584425
22 1 -9.304558 21.837517 -18.424497
23 1 -8.166426 -23.284710 -19.400841
24 1 -13.005941 20.389387 -3.996080
25 1 -11.221596 20.706780 -2.664733
26 1 -11.472933 19.716635 -6.184473
27 1 -5.442436 23.426938 -13.018090
28 1 -17.495555 6.704941 17.091389
29 1 -15.952450 7.089459 17.387506
30 1 -20.698250 6.051894 18.069462
31 1 -15.181558 6.869526 16.889768
ITEM: TIMESTEP
75
ITEM: NUMBER OF ATOMS
32
ITEM: BOX BOUNDS pp pp pp
-24.218291063497695 24.218291063497695
-24.218291063497695 24.218291063497695
-24.218291063497695 24.218291063497695
ITEM: ATOMS id type xs ys zs
0 1 13.958318 22.356323 10.473264
1 1 10.166330 21.449495 10.415646
2 1 7.821220 22.606676 9.915839
3 1 6.827222 17.483488 9.183685
4 1 6.354243 17.878215 14.266224
5 1 9.467443 16.306059 16.952032
6 1 -19.240658 1.973851 9.060925
7 1 -16.307207 6.228977 10.534732
8 1 -15.956777 6.721475 12.496913
9 1 -15.799618 5.782229 14.927620
10 1 -13.790999 3.068560 17.377691
11 1 -14.326883 6.838938 12.768091
12 1 0.998284 -6.680857 5.705898
13 1 2.573227 -3.995266 1.746334
14 1 2.258334 -2.827253 3.418244
15 1 2.889389 -7.057500 0.678806
16 1 3.224133 -8.108112 2.450719
17 1 4.625631 -4.453804 5.243816
18 1 -4.478053 19.349989 -7.501745
19 1 -6.088183 18.662812 -7.578341
20 1 -8.396978 20.464632 -9.264729
21 1 -19.891769 -13.651735 -21.705153
22 1 -20.752027 -14.393269 -23.938944
23 1 -20.638559 -16.802546 19.844994
24 1 -14.231035 21.313081 3.027652
25 1 -12.644851 19.673846 3.214872
26 1 -10.214121 18.612193 -3.624238
27 1 -13.591551 19.794904 -12.268039
28 1 -15.964492 7.350193 10.882508
29 1 -14.463442 6.365494 11.323053
30 1 -14.902385 5.113940 14.546490
31 1 -15.886201 5.432698 12.733105
ITEM: TIMESTEP
76
ITEM: NUMBER OF ATOMS
32
ITEM: BOX BOUNDS pp pp pp
-24.218291063497695 24.218291063497695
-24.218291063497695 24.218291063497695
-24.218291063497695 24.218291063497695
ITEM: ATOMS id type xs ys zs
0 1 20.618775 -19.127678 6.053508
1 1 19.851463 -22.596593 4.968818
2 1 20.561530 23.743918 6.375084
3 1 17.682006 21.081023 7.088603
4 1 18.431759 22.496464 8.478940
5 1 18.202545 22.987905 12.482606
6 1 -19.074654 7.560107 3.027834
7 1 -14.643956 6.283084 3.448974
8 1 -14.529184 7.768078 5.852427
9 1 -16.439713 6.992749 3.535655
10 1 -18.647425 5.042364 5.935195
11 1 -21.409590 5.378096 5.374757
12 1 -7.358057 11.252687 13.358834
13 1 -7.311340 12.373761 15.116976
14 1 -4.524622 11.737665 14.393555
15 1 -2.637475 8.299089 16.160790
16 1 -6.898605 7.263531 16.230195
17 1 -9.524921 7.201787 15.035062
18 1 -11.333052 -24.206152 0.015162
19 1 -8.690149 -22.924241 0.900208
20 1 -11.425496 -21.899453 -0.952175
21 1 -11.754552 -22.144260 -16.587178
22 1 -11.820830 -19.543454 -16.946737
23 1 -8.961779 -19.716266 -15.163490
24 1 3.304009 19.076208 -11.413192
25 1 0.367245 18.599509 -9.898275
26 1 -1.824701 18.194863 -7.983251
27 1 -5.167182 -20.158809 -11.148930
28 1 -14.823507 5.952572 1.618355
29 1 -14.667352 5.682604 2.786935
30 1 -15.407818 6.054612 4.751746
31 1 -15.909552 7.099152 6.361758
ITEM: TIMESTEP
77
ITEM: NUMBER OF ATOMS
32
ITEM: BOX BOUNDS pp pp pp
-24.218291063497695 24.218291063497695
-24.218291063497695 24.218291063497695
-24.218291063497695 24.218291063497695
ITEM: ATOMS id type xs ys zs
0 1 20.157173 -10.240034 -0.355422
1 1 23.233829 -14.695937 1.389131
2 1 20.685166 -16.278310 3.282430
3 1 17.519369 -21.192450 4.336575
4 1 17.016387 -23.128265 2.466714
5 1 17.525755 21.716362 2.490799
6 1 -5.333803 1.213566 -6.783463
7 1 0.652828 -1.981621 -8.086942
8 1 -1.409869 -0.294496 -8.059673
9 1 0.361715 1.780378 -8.371659
10 1 0.851245 2.266498 -5.415661
11 1 3.930671 2.434447 -3.765556
12 1 -6.638445 9.805430 13.260510
13 1 -4.676874 8.754725 11.505841
14 1 -6.731536 9.280074 13.761916
15 1 -4.676888 11.145037 10.116423
16 1 -7.226969 9.340388 9.816401
17 1 -6.172724 9.555174 7.119863
18 1 -16.853301 10.109324 -16.068299
19 1 -18.074964 12.959328 -16.950421
20 1 23.932795 16.480661 -17.723221
21 1 -17.551167 -16.531941 -13.687665
22 1 -18.267493 -16.397020 -16.109583
23 1 -12.005849 -17.431482 -13.134286
24 1 -22.120863 23.863798 -16.850170
25 1 -22.485512 -21.585025 -16.560532
26 1 -23.413719 -17.276839 -15.326406
27 1 -17.189160 -20.471302 -13.718183
28 1 -0.034721 -1.009071 -7.566899
29 1 -0.269463 0.341074 -8.723478
30 1 0.823327 -0.591607 -8.534933
31 1 -0.436642 0.973735 -7.032598
ITEM: TIMESTEP
78
ITEM: NUMBER OF ATOMS
32
ITEM: BOX BOUNDS pp pp pp
-24.218291063497695 24.218291063497695
-24.218291063497695 24.218291063497695
-24.218291063497695 24.218291063497695
ITEM: ATOMS id type xs ys zs
0 1 7.429964 -20.462623 10.927486
1 1 11.772436 -18.061821 9.817418
2 1 13.159323 -20.083569 8.566454
3 1 10.640721 -22.723281 8.655403
4 1 9.251179 -23.261562 12.671600
5 1 9.789647 23.350975 9.881911
6 1 -4.540143 -5.695614 4.340740
7 1 -6.410537 -5.466253 2.354431
8 1 -6.500390 -5.997043 -0.712582
9 1 -3.709210 -7.198944 -2.908523
10 1 -4.618259 -9.397996 -2.221230
11 1 -1.425644 -6.771607 -3.115189
12 1 -4.787908 22.542287 4.986858
13 1 -7.348836 -23.112575 8.654891
14 1 -6.595070 23.629268 6.264802
15 1 -6.584603 20.114270 3.843918
16 1 -5.745400 18.101793 3.026134
17 1 -2.560411 18.961361 -0.132837
18 1 22.263088 21.970750 23.381014
19 1 21.951052 21.417191 -23.516587
20 1 -23.979543 24.183976 24.176683
21 1 -15.996189 21.349485 -4.953861
22 1 -16.728886 19.344006 -3.724387
23 1 -16.791259 22.706660 -8.068384
24 1 -17.280953 -12.986194 -15.628788
25 1 -17.216295 -14.891943 -15.018849
26 1 -13.551048 -20.128113 -14.604088
27 1 -16.115311 -24.144943 -16.717393
28 1 -4.939236 -5.102775 -0.978318
29 1 -5.133765 -5.997659 -0.022382
30 1 -3.747213 -5.498985 -1.843247
31 1 -7.754853 -5.906906 -1.954847
ITEM: TIMESTEP
79
ITEM: NUMBER OF ATOMS
32
ITEM: BOX BOUNDS pp pp pp
-24.218291063497695 24.218291063497695
-24.218291063497695 24.218291063497695
-24.218291063497695 24.218291063497695
ITEM: ATOMS id type xs ys zs
0 1 0.826799 21.087867 5.902906
1 1 -1.951243 21.433770 4.473934
2 1 -2.912954 19.726275 3.745570
3 1 -2.631793 21.047663 6.560680
4 1 -2.811796 17.941795 5.644156
5 1 -0.964854 18.252840 6.711077
6 1 9.907950 -10.489948 11.530473
7 1 7.990416 -14.435119 13.405129
8 1 9.562287 -14.497570 11.878117
9 1 7.659999 -12.259269 9.381815
10 1 6.538963 -8.410695 11.030683
11 1 4.302223 -9.516382 10.204544
12 1 -12.174099 -21.447606 -3.080147
13 1 -10.648602 -21.871447 -1.149989
14 1 -9.977008 -23.628681 -2.076220
15 1 -9.298439 -22.566343 1.611835
16 1 -13.156327 -23.583451 -1.932457
17 1 -15.905969 -21.250266 -2.068167
18 1 0.105383 -19.707980 -15.397151
19 1 0.814195 -20.913160 -14.881888
20 1 -3.721589 -18.601906 -13.882373
21 1 -7.045414 -20.005099 -7.134945
22 1 -7.880680 -21.896943 -6.337842
23 1 -5.703796 -21.780995 -10.470103
24 1 -9.474247 21.157310 -13.441205
25 1 -8.515696 22.147484 -14.539612
26 1 -2.966230 22.280700 -13.471915
27 1 -4.352758 -23.080491 -14.447573
28 1 8.991708 -15.538762 12.753665
29 1 8.900738 -12.910445 11.674932
30 1 6.835346 -12.004664 8.859651
31 1 10.117320 -16.007712 12.635787
ITEM: TIMESTEP
80
ITEM: NUMBER OF ATOMS
32
ITEM: BOX BOUNDS pp pp pp
-24.218291063497695 24.218291063497695
-24.218291063497695 24.218291063497695
-24.218291063497695 24.218291063497695
ITEM: ATOMS id type xs ys zs
0 1 3.749785 -23.981126 17.991170
1 1 2.592613 23.873002 18.424945
2 1 1.522061 -22.615753 16.096159
3 1 2.303836 21.934549 15.193504
4 1 4.574656 17.777396 12.557697
5 1 6.078977 17.147863 10.585488
6 1 13.824470 -14.418417 6.983193
7 1 9.762653 -12.498431 8.491638
8 1 12.086404 -11.804409 7.271827
9 1 12.044630 -10.315349 11.621606
10 1 12.478668 -11.224201 9.549730
11 1 14.512571 -9.460115 12.889423
12 1 -9.378070 20.737053 16.520051
13 1 -7.510984 20.922136 17.643296
14 1 -7.876124 21.586332 14.323939
15 1 -6.049924 21.810079 10.439632
16 1 -3.136616 23.507314 13.008424
17 1 -1.490234 21.408143 17.295717
18 1 0.850405 -23.018536 1.842747
19 1 3.306939 -24.173683 1.128507
20 1 -0.509742 -21.186295 5.082350
21 1 -5.706153 20.517106 -12.626218
22 1 -6.550607 18.419929 -15.015280
23 1 -5.072750 -23.555245 -13.894028
24 1 -5.452985 23.326337 -12.164812
25 1 -7.276288 -23.825034 -10.482823
26 1 0.223492 -23.631710 -8.966338
27 1 -6.689789 24.042565 -5.537936
28 1 10.385530 -11.356458 9.367120
29 1 8.335431 -13.876612 7.740502
30 1 13.496863 -10.983738 12.593285
31 1 10.346623 -11.622683 7.062938
ITEM: TIMESTEP
81
ITEM: NUMBER OF ATOMS
32
ITEM: BOX BOUNDS pp pp pp
-24.218291063497695 24.218291063497695
-24.218291063497695 24.218291063497695
-24.218291063497695 24.218291063497695
ITEM: ATOMS id type xs ys zs
0 1 0.698656 12.379658 16.176214
1 1 -0.118145 9.377219 11.733458
2 1 1.910292 7.352560 9.713848
3 1 4.340301 6.190694 10.580568
4 1 5.776246 4.413376 14.310052
5 1 1.809620 8.562282 15.176490
6 1 9.437540 -9.566418 9.133220
7 1 6.823266 -5.442456 9.340818
8 1 5.741223 -7.440489 9.121530
9 1 7.672273 -6.224093 7.631641
10 1 7.124240 -7.619858 5.635709
11 1 7.482966 -4.245852 6.825912
12 1 2.440800 13.749273 13.284680
13 1 4.079638 14.271906 15.217137
14 1 1.111751 14.944269 12.837432
15 1 -0.336941 15.429077 14.861462
16 1 -0.063460 12.959384 13.654742
17 1 2.542504 13.495478 11.061648
18 1 -14.255207 10.591548 -3.878932
19 1 -15.982769 10.806839 -2.871218
20 1 -14.167759 12.836459 -3.127123
21 1 -8.407310 13.098024 -3.325919
22 1 -8.005785 13.069979 -5.863846
23 1 -12.122926 14.467336 -5.274345
24 1 -9.713413 -13.222767 -5.850896
25 1 -8.618400 -12.795081 -4.556198
26 1 -7.790134 -18.812186 -1.772018
27 1 -5.193037 22.118896 -4.939191
28 1 5.526073 -5.941255 8.762016
29 1 7.549863 -3.994585 10.717173
30 1 8.263436 -6.842158 7.811550
31 1 4.713273 -8.534614 8.326900
ITEM: TIMESTEP
82
ITEM: NUMBER OF ATOMS
32
ITEM: BOX BOUNDS pp pp pp
-24.218291063497695 24.218291063497695
-24.218291063497695 24.218291063497695
-24.218291063497695 24.218291063497695
ITEM: ATOMS id type xs ys zs
0 1 16.360869 -13.982962 -18.117952
1 1 17.532116 -13.243940 -13.871980
2 1 17.381753 -15.764191 -14.238611
3 1 18.071468 -19.751297 -16.800691
4 1 16.844964 -22.660084 -17.669128
5 1 19.053444 -22.260781 -15.143147
6 1 1.045547 -12.298749 -10.571211
7 1 2.781295 -14.992294 -7.366807
8 1 2.848105 -12.538395 -6.636252
9 1 2.258900 -17.529495 -5.535342
10 1 -0.829191 -20.640632 -2.302773
11 1 0.550877 -20.224115 -4.742890
12 1 -8.317737 23.219727 14.985063
13 1 -7.728425 -22.300974 16.689272
14 1 -5.561049 -24.063687 15.705706
15 1 -3.420233 22.963676 17.274287
16 1 -1.734297 23.379041 14.917775
17 1 -1.332025 -22.263935 16.205580
18 1 -21.157790 12.599994 -10.051937
19 1 -21.415852 13.695213 -7.663997
20 1 -17.241027 15.265046 -9.054789
21 1 -16.477444 11.229745 -22.248409
22 1 -16.259352 11.366999 -23.694560
23 1 -13.611481 10.366458 -22.245669
24 1 -5.225913 -24.201818 -7.345666
25 1 -3.961475 22.618986 -6.884301
26 1 -6.603249 20.452090 -8.118677
27 1 -12.287601 9.256972 -6.566110
28 1 3.991776 -12.544244 -8.100590
29 1 2.619937 -12.826376 -9.079100
30 1 0.753690 -18.536264 -7.504920
31 1 4.179708 -12.442391 -6.470332
ITEM: TIMESTEP
83
ITEM: NUMBER OF ATOMS
32
ITEM: BOX BOUNDS pp pp pp
-24.218291063497695 24.218291063497695
-24.218291063497695 24.218291063497695
-24.218291063497695 24.218291063497695
ITEM: ATOMS id type xs ys zs
0 1 18.543923 -21.073162 -9.610778
1 1 19.551716 -20.389454 -10.984822
2 1 20.908318 -22.043165 -12.564228
3 1 20.453423 -22.205691 -16.211742
4 1 21.387664 -23.906522 -17.670122
5 1 -23.700668 -22.073275 -19.890861
6 1 -2.752100 24.198337 12.770908
7 1 -2.153377 -21.343957 12.672312
8 1 -1.795999 -18.964845 12.294821
9 1 -1.587076 -17.354429 8.180382
10 1 -3.639644 -15.832389 4.912245
11 1 -0.259547 -13.360676 2.750740
12 1 -10.340827 -5.369354 -22.698380
13 1 -10.404537 -2.744505 21.995170
14 1 -7.745957 -2.985608 21.008883
15 1 -6.773290 -2.576961 22.889357
16 1 -10.939355 -3.351279 23.755954
17 1 -7.379465 -3.191138 -24.004335
18 1 -11.727837 17.104387 -17.209262
19 1 -9.569752 18.143055 -16.486140
20 1 -14.148913 16.129399 -18.409906
21 1 -7.930372 -0.027962 -14.354399
22 1 -7.180863 -1.121750 -15.803506
23 1 -13.343382 0.428079 -13.578846
24 1 -12.255660 6.829697 -21.022568
25 1 -12.239341 7.309460 -22.827120
26 1 -5.897251 10.467270 -21.525582
27 1 -6.885378 10.974562 -20.222884
28 1 -0.763289 -19.982018 9.703686
29 1 -2.255469 -21.540634 12.241394
30 1 -2.620480 -19.583063 8.548660
31 1 -1.241377 -20.272292 10.446357
ITEM: TIMESTEP
84
ITEM: NUMBER OF ATOMS
32
ITEM: BOX BOUNDS pp pp pp
-24.218291063497695 24.218291063497695
-24.218291063497695 24.218291063497695
-24.218291063497695 24.218291063497695
ITEM: ATOMS id type xs ys zs
0 1 21.790020 -8.684942 22.033420
1 1 20.598807 -9.258197 -21.752240
2 1 22.693064 -6.861966 -22.474326
3 1 -20.902595 -6.382693 -17.707709
4 1 -20.615145 -5.229861 -21.061504
5 1 -24.127496 -6.722909 23.890450
6 1 -12.890292 -19.137719 7.983088
7 1 -14.740770 -18.551910 6.322405
8 1 -14.315898 -20.034951 8.850472
9 1 -15.163953 -17.840007 8.616465
10 1 -16.449994 -15.679014 5.919227
11 1 -17.981836 -11.898302 6.250634
12 1 -6.949350 7.354826 15.006787
13 1 -6.134893 4.886381 16.673840
14 1 -5.056090 8.187218 16.520176
15 1 -2.980556 9.583822 15.074574
16 1 -1.683246 9.292655 10.189603
17 1 -2.816344 12.641478 8.461307
18 1 -14.168068 13.317377 16.284205
19 1 -12.315104 13.328151 14.144701
20 1 -10.126810 15.023945 17.398182
21 1 -0.647395 16.899657 21.490107
22 1 -0.486982 15.319997 20.829377
23 1 -4.347528 15.627639 18.427656
24 1 -12.560971 8.033944 -20.097665
25 1 -9.505350 7.950535 -18.869209
26 1 -12.578549 2.235181 -16.517188
27 1 -13.518034 9.721531 23.777636
28 1 -13.784001 -16.634769 8.755408
29 1 -14.372426 -18.116925 8.293746
30 1 -15.609195 -18.083910 7.419409
31 1 -14.273283 -19.806266 10.449158
ITEM: TIMESTEP
85
ITEM: NUMBER OF ATOMS
32
ITEM: BOX BOUNDS pp pp pp
-24.218291063497695 24.218291063497695
-24.218291063497695 24.218291063497695
-24.218291063497695 24.218291063497695
ITEM: ATOMS id type xs ys zs
0 1 18.408620 3.274980 22.230835
1 1 13.864494 5.564432 -21.130698
2 1 12.457578 5.866567 -18.914084
3 1 10.410238 5.740094 23.760895
4 1 9.146621 6.353246 21.283057
5 1 12.395481 7.745993 -23.131571
6 1 23.350530 -8.728742 11.068515
7 1 -21.813476 -12.866499 9.368033
8 1 -22.402884 -9.105375 10.125914
9 1 -22.415168 -13.069176 12.172703
10 1 -23.755993 -15.724664 8.817835
11 1 23.794812 -13.437598 8.073896
12 1 -4.471534 16.572774 15.037864
13 1 0.737045 14.932347 13.134856
14 1 -0.365665 17.941395 13.023962
15 1 -1.255556 22.953247 8.201045
16 1 -2.273715 21.566281 9.755056
17 1 -2.104511 19.799838 7.374975
18 1 -12.193847 6.535317 -20.587984
19 1 -10.573454 6.592747 -21.426671
20 1 -12.749029 6.895860 -23.367149
21 1 -9.286940 22.962202 13.797897
22 1 -7.510398 23.120991 12.085822
23 1 -9.539187 17.280480 12.948466
24 1 -1.611956 9.509555 -19.304719
25 1 -2.907210 10.436125 -20.389516
26 1 -6.045525 11.383559 21.764396
27 1 -6.422487 8.729445 18.038500
28 1 -20.587906 -12.705331 11.249946
29 1 -20.159019 -13.746965 8.854318
30 1 -21.447291 -13.040925 13.144766
31 1 -20.564513 -10.313962 11.648002
ITEM: TIMESTEP
86
ITEM: NUMBER OF ATOMS
32
ITEM: BOX BOUNDS pp pp pp
-24.218291063497695 24.218291063497695
-24.218291063497695 24.218291063497695
-24.218291063497695 24.218291063497695
ITEM: ATOMS id type xs ys zs
0 1 21.758222 4.952527 -22.622710
1 1 21.830325 2.334090 -21.455756
2 1 22.132874 -2.210810 -20.662074
3 1 21.209223 -0.081044 -19.069845
4 1 18.244567 -0.101320 -19.365238
5 1 21.599541 -2.158890 -17.588343
6 1 -18.998526 -14.468316 -11.681653
7 1 -20.902741 -14.503811 -11.865619
8 1 -22.722438 -13.300160 -12.158421
9 1 -23.818168 -15.814652 -11.868412
10 1 20.120527 -14.331658 -13.146019
11 1 21.419603 -14.570409 -16.956119
12 1 12.787163 2.496995 3.875451
13 1 9.830531 -0.380931 3.330487
14 1 12.162370 0.933577 1.194845
15 1 9.163112 3.022517 1.557935
16 1 6.824380 0.046041 -0.476513
17 1 7.282103 0.263755 -2.863708
18 1 -3.339615 13.221193 22.990648
19 1 -2.187568 11.628221 -23.727295
20 1 -5.575222 10.610895 -23.202385
21 1 -12.685697 -6.638443 15.899972
22 1 -13.213221 -6.982865 16.928421
23 1 -14.596970 -7.619030 23.952461
24 1 -13.198756 4.646720 20.283114
25 1 -12.532922 6.454063 17.354730
26 1 -12.432136 2.751985 16.143788
27 1 -12.422128 1.175048 18.332182
28 1 -22.100096 -14.616648 -10.619750
29 1 -20.922077 -14.726719 -14.492717
30 1 -23.545834 -14.158800 -13.019102
31 1 -22.749246 -13.605478 -10.603064
ITEM: TIMESTEP
87
ITEM: NUMBER OF ATOMS
32
ITEM: BOX BOUNDS pp pp pp
-24.218291063497695 24.218291063497695
-24.218291063497695 24.218291063497695
-24.218291063497695 24.218291063497695
ITEM: ATOMS id type xs ys zs
0 1 14.951876 -0.934497 -22.538610
1 1 12.528904 -1.646988 -18.577968
2 1 13.698271 -3.745600 -18.104301
3 1 9.997953 -2.501741 -17.722669
4 1 12.471357 -2.117510 -15.386054
5 1 14.986728 -2.561044 -14.222585
6 1 19.317808 -3.329373 1.715778
7 1 21.094840 -1.010435 -0.534597
8 1 21.674325 0.842927 0.187175
9 1 22.474330 1.259460 -1.276266
10 1 18.644122 0.857759 -1.294505
11 1 15.568243 3.535354 -0.839561
12 1 11.634215 10.590089 -7.544858
13 1 11.760446 13.153392 -4.033889
14 1 13.538645 12.865022 -4.681155
15 1 15.422557 11.452201 -8.403262
16 1 17.104670 11.584778 -6.223048
17 1 17.825491 14.265854 -5.077160
18 1 -22.572641 15.769873 -23.452307
19 1 -23.841141 15.831864 -22.798090
20 1 -21.865717 15.302947 21.418951
21 1 -9.146566 4.855301 23.054794
22 1 -10.634887 7.086877 23.215999
23 1 -11.321028 4.307233 21.514750
24 1 18.937309 7.598154 15.845843
25 1 17.732332 7.211903 13.236434
26 1 24.113266 10.402323 16.947421
27 1 -15.631462 12.265411 21.535182
28 1 22.663409 -1.468505 -0.102015
29 1 22.359596 -0.229516 1.175182
30 1 -23.673655 -0.690611 -1.397310
31 1 21.923319 -0.437512 0.837730
ITEM: TIMESTEP
88
ITEM: NUMBER OF ATOMS
32
ITEM: BOX BOUNDS pp pp pp
-24.218291063497695 24.218291063497695
-24.218291063497695 24.218291063497695
-24.218291063497695 24.218291063497695
ITEM: ATOMS id type xs ys zs
0 1 10.872472 -0.841355 -15.645803
1 1 9.155162 -2.168136 -19.061223
2 1 8.088239 -3.345190 -17.558280
3 1 6.934930 -6.818138 -14.996997
4 1 1.897898 -8.206888 -13.626333
5 1 -0.512360 -10.051374 -14.269496
6 1 -23.760315 -9.437464 4.437508
7 1 20.013561 -9.045267 4.718648
8 1 21.716513 -10.380448 5.328398
9 1 20.153366 -14.445371 3.190630
10 1 23.184249 -12.979100 1.408217
11 1 22.708544 -16.733283 2.581481
12 1 -4.643711 -13.628998 -7.867980
13 1 -3.826920 -15.853238 -5.747443
14 1 -3.655265 -17.185497 -8.274183
15 1 -3.273358 -21.522511 -6.453859
16 1 -1.283151 -22.807946 -7.699644
17 1 -0.759281 23.308052 -11.792689
18 1 22.487110 -5.760758 12.030401
19 1 24.008175 -6.773137 13.973639
20 1 23.074236 -10.583107 18.660579
21 1 -19.612826 -0.134615 -23.548130
22 1 -18.258597 1.673772 -23.534127
23 1 -15.458715 1.041433 -23.430674
24 1 -16.184650 -8.699009 22.967284
25 1 -16.061302 -10.480205 21.352875
26 1 -18.609991 -9.385728 24.174339
27 1 -16.748389 -1.591686 -22.051594
28 1 19.339692 -11.599699 5.463338
29 1 18.964391 -8.280227 5.479826
30 1 19.592837 -12.939310 2.762728
31 1 20.906192 -10.939137 4.833769
ITEM: TIMESTEP
89
ITEM: NUMBER OF ATOMS
32
ITEM: BOX BOUNDS pp pp pp
-24.218291063497695 24.218291063497695
-24.218291063497695 24.218291063497695
-24.218291063497695 24.218291063497695
ITEM: ATOMS id type xs ys zs
0 1 8.038651 12.610664 8.894168
1 1 6.059065 12.400540 8.410098
2 1 6.132480 14.378047 7.197701
3 1 8.886303 12.684981 4.678884
4 1 11.114490 10.567167 3.074432
5 1 11.267144 12.012623 -3.153822
6 1 24.085068 -1.295711 -4.907409
7 1 20.456446 -1.868218 -6.853924
8 1 21.945164 -1.900145 -7.229644
9 1 -23.952825 -1.193331 -6.429514
10 1 -23.173516 1.470864 -5.513087
11 1 -22.059107 0.545809 -8.838753
12 1 -9.284858 -16.731967 -1.346971
13 1 -11.182586 -12.643927 -2.813901
14 1 -11.344339 -10.432529 -2.943042
15 1 -6.264590 -12.517476 -5.577823
16 1 -7.941096 -11.569163 -2.403003
17 1 -11.165875 -15.308312 -0.042207
18 1 -20.279637 -0.232919 4.453448
19 1 -21.185517 1.805037 7.394243
20 1 -22.714860 1.236058 -0.557834
21 1 -12.209695 5.735997 13.052876
22 1 -12.822756 3.261754 12.184005
23 1 -16.213355 1.040289 11.999475
24 1 1.659862 -0.013169 13.040187
25 1 1.013522 -0.184953 13.540658
26 1 -0.916555 -0.157773 16.777289
27 1 -11.297069 2.451056 14.140504
28 1 22.024140 -4.183813 -7.671608
29 1 20.009327 -3.643882 -6.422397
30 1 22.897348 -1.318655 -6.396567
31 1 22.191313 -1.607554 -6.877167
ITEM: TIMESTEP
90
ITEM: NUMBER OF ATOMS
32
ITEM: BOX BOUNDS pp pp pp
-24.218291063497695 24.218291063497695
-24.218291063497695 24.218291063497695
-24.218291063497695 24.218291063497695
ITEM: ATOMS id type xs ys zs
0 1 12.663964 19.892887 -8.132963
1 1 14.624052 18.220196 -7.681978
2 1 16.374224 17.023070 -6.255853
3 1 13.685413 14.324236 -4.233354
4 1 18.060867 16.923628 -0.516815
5 1 18.440461 17.766703 -3.583000
6 1 19.006013 -10.047723 -11.088678
7 1 20.319196 -7.447228 -9.810680
8 1 18.312450 -5.319765 -8.747253
9 1 20.367909 -4.503233 -6.024748
10 1 20.852533 -6.608380 -6.323267
11 1 21.966577 -9.912004 -5.563961
12 1 -14.473801 -23.787240 -12.873842
13 1 -13.276714 21.521565 -12.238388
14 1 -14.922881 20.526806 -10.282217
15 1 -9.416193 14.629407 -7.666380
16 1 -10.841216 16.866008 -6.342609
17 1 -9.966414 19.075977 -4.395564
18 1 19.592402 17.199395 20.744318
19 1 19.431948 16.279397 22.312434
20 1 18.990605 12.986330 19.330065
21 1 -9.542613 -22.612189 -0.566169
22 1 -10.326935 22.734195 -1.141297
23 1 -12.031374 23.825028 2.781055
24 1 -18.768422 -4.181695 8.358426
25 1 -18.166904 -6.092498 7.664432
26 1 -16.370569 -3.377115 12.177796
27 1 -22.662440 11.591379 13.138564
28 1 19.234706 -4.783423 -7.717387
29 1 21.209803 -6.056678 -8.847530
30 1 18.144267 -4.482770 -5.232911
31 1 18.434389 -5.526836 -9.790401
ITEM: TIMESTEP
91
ITEM: NUMBER OF ATOMS
32
ITEM: BOX BOUNDS pp pp pp
-24.218291063497695 24.218291063497695
-24.218291063497695 24.218291063497695
-24.218291063497695 24.218291063497695
ITEM: ATOMS id type xs ys zs
0 1 11.104542 17.411519 -22.861984
1 1 10.962193 15.613477 -20.173238
2 1 9.724613 15.695247 -17.349838
3 1 5.725145 20.084987 -16.369797
4 1 10.603363 16.649726 -14.671249
5 1 9.747703 18.894019 -12.170434
6 1 22.842220 -12.419146 -5.183253
7 1 22.750718 -14.342895 -4.743400
8 1 20.908740 -12.296539 -4.762924
9 1 19.877303 -14.048807 -5.131342
10 1 21.104465 -15.704651 -8.199318
11 1 20.587277 -16.736484 -2.856878
12 1 17.107507 14.141472 -3.334666
13 1 19.784381 11.177086 -3.944237
14 1 17.510218 11.736276 -4.104774
15 1 17.777375 15.210474 -8.777106
16 1 22.041389 18.187720 -9.598060
17 1 19.719986 16.311822 -8.465716
18 1 18.612873 -15.868473 23.559305
19 1 16.978056 -12.722276 22.504643
20 1 13.585653 -12.907727 -22.018281
21 1 -10.626826 24.142675 21.168098
22 1 -11.945401 22.617655 21.816532
23 1 -10.567360 -22.897986 16.629405
24 1 18.818705 -13.236466 21.215905
25 1 19.564819 -14.683252 21.818045
26 1 22.464260 -15.287915 21.773545
27 1 -22.197094 23.739443 20.616084
28 1 19.540498 -12.689771 -5.099288
29 1 20.806554 -14.063677 -4.433782
30 1 19.272738 -13.209780 -4.513054
31 1 20.500933 -11.069498 -5.409796
ITEM: TIMESTEP
92
ITEM: NUMBER OF ATOMS
32
ITEM: BOX BOUNDS pp pp pp
-24.218291063497695 24.218291063497695
-24.218291063497695 24.218291063497695
-24.218291063497695 24.218291063497695
ITEM: ATOMS id type xs ys zs
0 1 18.891369 -17.556760 -9.887136
1 1 18.029664 -17.232753 -16.598470
2 1 17.066952 -19.075199 -17.366130
3 1 15.820064 24.138942 -13.809575
4 1 15.452550 -20.540918 -12.876619
5 1 14.199168 -18.027718 -12.748589
6 1 21.345246 -5.039727 -16.738765
7 1 23.010331 -5.740941 -16.387241
8 1 22.196121 -7.955944 -18.634637
9 1 20.086307 -5.908393 -15.616882
10 1 16.314604 -2.288658 -13.905741
11 1 16.626231 0.490239 -14.083537
12 1 9.194313 12.015844 12.814370
13 1 8.469809 11.487363 11.883236
14 1 8.813238 8.792047 10.599142
15 1 8.491200 11.240756 9.560997
16 1 8.858972 13.685607 9.209608
17 1 5.634568 16.756136 6.604615
18 1 10.232298 -14.703242 2.958192
19 1 8.994237 -15.665146 3.001161
20 1 5.197022 -13.781839 3.312210
21 1 15.482101 20.528322 7.294072
22 1 17.080855 21.623153 6.148915
23 1 18.458155 -22.642357 7.578220
24 1 15.212116 -16.233779 1.213628
25 1 15.203544 -14.518511 2.368456
26 1 12.932136 -16.615038 -1.946858
27 1 5.494404 -15.960935 -1.811945
28 1 -24.195249 -6.492589 -17.833497
29 1 21.684031 -5.659764 -16.662818
30 1 20.419563 -6.529645 -14.322790
31 1 22.838243 -7.102087 -17.387309
ITEM: TIMESTEP
93
ITEM: NUMBER OF ATOMS
32
ITEM: BOX BOUNDS pp pp pp
-24.218291063497695 24.218291063497695
-24.218291063497695 24.218291063497695
-24.218291063497695 24.218291063497695
ITEM: ATOMS id type xs ys zs
0 1 15.261557 -9.948686 -1.529333
1 1 17.251718 -11.773226 -0.988767
2 1 17.344091 -9.174308 -0.319333
3 1 17.004266 -14.853423 0.752722
4 1 19.016448 -13.989057 -2.963464
5 1 22.599907 -13.180060 -7.333340
6 1 -20.192118 3.510771 21.307110
7 1 -22.358284 5.119188 20.526612
8 1 23.912278 5.126462 22.542315
9 1 21.720413 6.051970 23.575147
10 1 22.086531 7.954341 21.344547
11 1 24.020341 8.579105 20.048678
12 1 3.387999 7.429297 18.510843
13 1 1.383801 8.233609 20.800321
14 1 1.782585 10.006139 23.517166
15 1 6.753020 8.960571 22.041956
16 1 5.555781 12.797932 19.927739
17 1 5.081233 17.972647 17.503571
18 1 23.286957 -8.090415 -3.038902
19 1 20.623674 -8.601653 -4.533312
20 1 21.290309 -11.603524 -1.917116
21 1 10.946955 21.773259 2.928353
22 1 13.647072 21.477356 2.249827
23 1 18.249583 23.306660 0.073841
24 1 15.412577 -17.197870 2.252376
25 1 17.035650 -18.318286 1.890977
26 1 15.119970 -16.976959 4.016252
27 1 19.885588 -16.790179 8.138394
28 1 22.961368 5.294867 22.072496
29 1 -23.142105 2.595033 20.454907
30 1 22.977102 5.170111 -24.003790
31 1 22.985061 4.617547 23.432978
ITEM: TIMESTEP
94
ITEM: NUMBER OF ATOMS
32
ITEM: BOX BOUNDS pp pp pp
-24.218291063497695 24.218291063497695
-24.218291063497695 24.218291063497695
-24.218291063497695 24.218291063497695
ITEM: ATOMS id type xs ys zs
0 1 17.458221 -6.080533 6.739776
1 1 14.340777 -6.926376 5.946132
2 1 14.197811 -8.575507 6.902522
3 1 13.978797 -4.452538 6.672878
4 1 14.478170 -2.625362 5.852425
5 1 17.714724 -2.536523 5.344738
6 1 22.878486 9.132771 18.597923
7 1 -23.972494 11.230064 16.387029
8 1 21.585184 10.647150 15.349890
9 1 24.130032 12.059604 13.879784
10 1 20.769119 13.022109 13.506377
11 1 19.230001 16.163785 14.560432
12 1 -23.598028 11.198134 12.227003
13 1 -23.514033 10.581901 14.381541
14 1 23.324892 8.200935 15.162849
15 1 21.308105 9.465069 10.298604
16 1 23.793457 10.741481 11.724144
17 1 21.176176 11.582090 11.585952
18 1 13.610690 -12.037389 -2.727039
19 1 12.853231 -13.115640 -3.682993
20 1 15.915053 -11.809684 -4.788278
21 1 4.703950 -9.759758 -1.268936
22 1 5.234330 -12.567238 -1.892685
23 1 7.280901 -16.001277 -1.347441
24 1 21.695220 21.585645 2.808322
25 1 20.183222 21.692951 3.891150
26 1 19.414713 -22.523662 1.976614
27 1 15.513230 -18.284415 4.207424
28 1 -21.336673 9.114344 14.993121
29 1 -23.129062 11.179436 14.711806
30 1 -22.568894 12.285778 14.632878
31 1 23.320508 9.046608 16.009955
ITEM: TIMESTEP
95
ITEM: NUMBER OF ATOMS
32
ITEM: BOX BOUNDS pp pp pp
-24.218291063497695 24.218291063497695
-24.218291063497695 24.218291063497695
-24.218291063497695 24.218291063497695
ITEM: ATOMS id type xs ys zs
0 1 9.151005 4.579961 11.404678
1 1 9.108734 10.006490 10.507901
2 1 11.922288 8.986398 9.878428
3 1 13.463601 8.968129 7.344376
4 1 11.343871 9.761486 5.453886
5 1 13.153687 9.395402 3.375029
6 1 14.900621 5.694402 13.969039
7 1 17.349990 5.064826 14.032058
8 1 17.945729 6.166201 10.591986
9 1 20.057543 4.689897 11.518064
10 1 22.724971 5.650293 11.267553
11 1 23.386906 8.540682 8.079532
12 1 -23.086793 13.102519 -1.560294
13 1 -22.621011 12.195981 -4.321458
14 1 -23.557203 13.822640 -7.242916
15 1 -22.326639 10.484874 -4.699935
16 1 -22.067605 14.680873 -4.020530
17 1 23.328111 15.173887 -2.585193
18 1 1.589449 -19.614960 11.462742
19 1 1.499927 -21.640651 10.815184
20 1 1.454878 -21.526402 14.493776
21 1 1.954675 20.278950 4.242872
22 1 2.011076 21.012542 5.235015
23 1 1.352642 22.970146 8.516143
24 1 11.991748 19.005529 -23.887660
25 1 11.980725 21.069789 23.429073
26 1 10.100058 19.950943 17.617623
27 1 3.623784 -20.581430 11.912775
28 1 16.984502 4.500377 12.142169
29 1 18.650770 5.066627 12.187861
30 1 18.994873 5.184937 12.027424
31 1 16.546730 5.320670 11.319859
ITEM: TIMESTEP
96
ITEM: NUMBER OF ATOMS
32
ITEM: BOX BOUNDS pp pp pp
-24.218291063497695 24.218291063497695
-24.218291063497695 24.218291063497695
-24.218291063497695 24.218291063497695
ITEM: ATOMS id type xs ys zs
0 1 -11.046315 15.324444 8.255409
1 1 -10.362497 14.022300 9.224344
2 1 -9.751975 11.958935 12.283087
3 1 -11.126348 10.150464 8.235372
4 1 -7.546904 8.928094 5.884854
5 1 -8.150667 10.193968 8.761534
6 1 22.409056 6.602165 -4.542348
7 1 -23.236455 1.146042 -3.269561
8 1 -24.190007 2.237838 -0.799591
9 1 20.838900 -0.447190 0.190794
10 1 21.861924 1.014835 1.494841
11 1 23.898208 -2.696403 2.056997
12 1 19.692084 20.176132 -3.670269
13 1 20.558553 17.196385 -5.814595
14 1 18.799554 18.428752 -3.613710
15 1 -23.950637 17.975571 -0.954142
16 1 -23.830680 20.204894 -1.837662
17 1 22.968471 14.735093 -4.092707
18 1 -0.669025 18.785983 -1.362839
19 1 0.364874 20.387015 0.518748
20 1 3.551340 21.692087 3.509031
21 1 9.983501 20.307312 -0.779227
22 1 10.062367 20.114367 1.035155
23 1 10.269424 22.498765 2.318074
24 1 18.478170 -18.822972 8.989450
25 1 19.140083 -17.143269 9.475188
26 1 18.849325 -23.660593 8.438558
27 1 8.390645 22.416790 7.229432
28 1 22.475352 1.731423 -1.205684
29 1 24.036327 0.186621 -1.968613
30 1 21.686440 -1.047299 0.578033
31 1 -23.619475 1.500163 0.697341
ITEM: TIMESTEP
97
ITEM: NUMBER OF ATOMS
32
ITEM: BOX BOUNDS pp pp pp
-24.218291063497695 24.218291063497695
-24.218291063497695 24.218291063497695
-24.218291063497695 24.218291063497695
ITEM: ATOMS id type xs ys zs
0 1 -3.269069 24.014323 -23.901971
1 1 1.955678 23.201099 -23.059051
2 1 0.872151 -23.368887 -23.198023
3 1 -0.401217 23.457879 -22.333937
4 1 -2.606000 22.517945 -23.283636
5 1 -1.341151 -22.621249 -22.893376
6 1 6.343559 -0.601727 2.040865
7 1 7.808678 3.261479 4.026648
8 1 9.868754 2.629381 5.488645
9 1 5.763591 6.832530 6.401499
10 1 7.424613 8.279317 3.785874
11 1 6.030554 7.718576 1.783575
12 1 -13.172931 -23.758850 -17.598738
13 1 -13.726573 23.437905 -14.756134
14 1 -14.476762 21.484533 -14.373893
15 1 -10.989768 20.059601 -11.654877
16 1 -8.470065 20.088503 -13.917085
17 1 -12.700684 19.382438 -12.907941
18 1 -2.092038 22.731433 13.076756
19 1 -4.206669 22.080659 13.181970
20 1 -1.580353 -21.389613 11.019778
21 1 -4.380868 24.162572 16.275187
22 1 -4.403320 21.427198 16.425380
23 1 2.676305 20.232313 13.254823
24 1 14.841153 -18.508798 9.681991
25 1 12.508321 -17.990441 8.297487
26 1 11.422850 -15.714763 10.906859
27 1 3.664917 -21.120761 14.234091
28 1 12.369003 3.194919 4.737206
29 1 8.776518 3.665222 3.027815
30 1 14.222637 3.048511 5.624780
31 1 10.310357 2.238093 7.303792
ITEM: TIMESTEP
98
ITEM: NUMBER OF ATOMS
32
ITEM: BOX BOUNDS pp pp pp
-24.218291063497695 24.218291063497695
-24.218291063497695 24.218291063497695
-24.218291063497695 24.218291063497695
ITEM: ATOMS id type xs ys zs
0 1 8.637659 10.636100 -23.092231
1 1 5.972984 12.139270 -20.512462
2 1 7.601469 12.454098 -18.671462
3 1 3.264612 9.616990 -15.916456
4 1 2.713989 12.691380 -17.469617
5 1 3.880331 15.588857 -19.601000
6 1 -5.790144 0.884213 12.927224
7 1 -9.542539 1.994252 9.519379
8 1 -7.283735 -0.285763 9.485805
9 1 -7.498312 1.521031 11.992482
10 1 -6.381562 3.211048 10.394559
11 1 -10.412170 -0.542540 12.216300
12 1 -23.756168 9.678215 -15.261373
13 1 -21.251493 15.314998 -15.412015
14 1 -21.918679 15.319240 -13.081427
15 1 23.815568 16.876166 -16.487191
16 1 -23.382860 13.791326 -17.006754
17 1 -18.676333 11.229900 -14.631235
18 1 11.044083 -19.338700 -23.370118
19 1 13.497034 -19.233939 -23.569562
20 1 13.397850 -23.843531 -23.420972
21 1 7.222667 19.318268 18.347952
22 1 8.516143 21.121331 19.013477
23 1 9.049155 17.804123 20.066329
24 1 1.034059 22.300165 -18.667402
25 1 1.473612 21.535872 -21.267776
26 1 -1.028584 23.485314 -23.642232
27 1 -0.703475 -21.706091 20.572196
28 1 -10.878869 2.504404 12.250321
29 1 -10.216830 2.918033 9.517407
30 1 -9.057931 2.108519 11.411707
31 1 -7.669100 1.375395 10.883462
ITEM: TIMESTEP
99
ITEM: NUMBER OF ATOMS
32
ITEM: BOX BOUNDS pp pp pp
-24.218291063497695 24.218291063497695
-24.218291063497695 24.218291063497695
-24.218291063497695 24.218291063497695
ITEM: ATOMS id type xs ys zs
0 1 -8.086361 21.401908 -9.700583
1 1 -10.176510 18.248006 -11.040464
2 1 -7.488294 17.558628 -7.314401
3 1 -12.087510 19.281110 -3.048165
4 1 -10.999162 19.091602 -4.337129
5 1 -15.111490 15.629985 -1.037596
6 1 -14.335659 -8.311884 13.326254
7 1 -16.645418 -10.647799 15.593511
8 1 -17.623304 -10.575155 13.765082
9 1 -15.013833 -8.711565 13.650023
10 1 -15.083689 -4.850683 13.286023
11 1 -10.218157 -3.183500 15.137681
12 1 -11.233118 23.652304 20.178526
13 1 -9.577288 22.675786 21.112110
14 1 -8.733631 -24.041729 23.317010
15 1 -9.904440 21.883464 -23.453489
16 1 -14.393694 21.615317 20.983222
17 1 -15.917192 23.633018 -23.703801
18 1 3.564549 -19.473889 6.007090
19 1 2.614703 -21.271665 4.501658
20 1 -3.495060 -19.595759 6.265216
21 1 -4.685502 18.613632 10.872715
22 1 -6.358832 19.371271 10.607355
23 1 -5.638313 21.247074 13.541116
24 1 9.571302 -16.809567 17.300791
25 1 10.319223 -20.113437 17.078509
26 1 13.180580 -13.787102 12.688398
27 1 6.935435 -22.278609 17.714599
28 1 -15.034234 -8.407246 12.523035
29 1 -16.013906 -9.500871 14.346651
30 1 -14.938824 -8.588593 12.130830
31 1 -18.585325 -9.213615 12.349662
ITEM: TIMESTEP
100
ITEM: NUMBER OF ATOMS
32
ITEM: BOX BOUNDS pp pp pp
-24.218291063497695 24.218291063497695
-24.218291063497695 24.218291063497695
-24.218291063497695 24.218291063497695
ITEM: ATOMS id type xs ys zs
0 1 23.510072 5.526055 -7.451128
1 1 -23.267372 6.322212 -4.846215
2 1 -23.411551 3.382583 -4.793908
3 1 -19.738884 4.991570 -4.073863
4 1 -20.820609 6.022453 -5.424769
5 1 -22.019593 2.205211 -6.748507
6 1 23.027281 -2.450720 19.688059
7 1 -22.740202 -0.608239 -24.136474
8 1 24.019600 -1.986955 23.314340
9 1 -21.961268 0.985455 20.875309
10 1 23.373478 1.556688 22.852831
11 1 23.476200 3.198146 -21.081411
12 1 -11.961421 -20.476548 -16.192431
13 1 -11.962036 -20.442280 -14.983536
14 1 -13.674613 -19.172077 -16.709842
15 1 -15.129397 -23.147343 -14.604829
16 1 -16.631306 -24.121499 -12.666292
17 1 -15.104355 23.363385 -10.482101
18 1 11.525954 -10.522002 -4.111463
19 1 14.087384 -9.281296 -4.086171
20 1 23.701263 -10.160444 -3.096292
21 1 14.605832 15.547979 5.963842
22 1 13.028831 16.753944 4.297818
23 1 15.680321 20.092424 5.828606
24 1 14.399106 -14.337101 7.337753
25 1 15.190282 -12.213274 5.587568
26 1 11.728974 -12.259794 6.975061
27 1 17.832403 -17.455347 -5.810548
28 1 -21.415464 -0.945908 23.503747
29 1 -22.181768 -2.306659 24.046157
30 1 -22.953564 1.137293 22.051784
31 1 -23.003278 -1.348929 23.407551
ITEM: TIMESTEP
101
ITEM: NUMBER OF ATOMS
32
ITEM: BOX BOUNDS pp pp pp
-24.218291063497695 24.218291063497695
-24.218291063497695 24.218291063497695
-24.218291063497695 24.218291063497695
ITEM: ATOMS id type xs ys zs
0 1 -18.856856 1.977880 -21.080575
1 1 -19.773459 4.154953 -19.098909
2 1 -21.755535 5.028083 -19.064057
3 1 -21.876639 3.383044 -22.642717
4 1 -18.951684 0.503405 24.075827
5 1 -19.565301 -1.076333 22.210083
6 1 -18.238981 -0.962500 7.860231
7 1 -21.999514 -0.587432 8.995396
8 1 -23.991581 -0.510964 9.092498
9 1 -21.535075 0.703268 7.620838
10 1 -22.852483 2.888828 7.299649
11 1 -21.603904 3.815501 9.772870
12 1 -7.306811 -23.676525 17.656796
13 1 -10.078994 20.787271 18.728159
14 1 -12.996384 19.838983 18.727063
15 1 -12.410182 17.758749 21.121205
16 1 -14.046163 18.839293 22.163428
17 1 -16.862233 21.649734 18.711177
18 1 9.598043 21.732282 -3.396963
19 1 9.850607 23.688505 -2.417912
20 1 11.807847 23.270820 -8.511384
21 1 -22.691870 -18.174658 -10.049052
22 1 -22.260804 -17.876818 -6.273634
23 1 22.907687 -15.247268 -11.204106
24 1 13.907630 -21.267341 -6.374760
25 1 14.396796 -23.538976 -7.716569
26 1 18.810772 23.791467 -9.624173
27 1 22.753039 -19.698659 -10.340588
28 1 24.128408 0.108682 7.605098
29 1 -20.151449 -1.007084 8.751863
30 1 -23.064705 2.903303 8.547416
31 1 23.404433 -0.702618 7.841212
ITEM: TIMESTEP
102
ITEM: NUMBER OF ATOMS
32
ITEM: BOX BOUNDS pp pp pp
-24.218291063497695 24.218291063497695
-24.218291063497695 24.218291063497695
-24.218291063497695 24.218291063497695
ITEM: ATOMS id type xs ys zs
0 1 0.126082 4.195328 11.275472
1 1 0.743489 3.416997 13.953366
2 1 1.839832 2.658192 15.123992
3 1 2.167503 3.469487 20.784683
4 1 -0.080437 3.726069 19.305927
5 1 -2.198919 5.214129 19.556789
6 1 1.934924 0.861727 14.799514
7 1 5.630519 1.208166 13.848594
8 1 4.195338 -1.431254 13.980684
9 1 7.008612 1.343043 13.034816
10 1 6.439639 4.199253 14.164246
11 1 10.109705 0.425464 14.472377
12 1 21.983961 24.048781 -19.133735
13 1 -22.518771 24.130361 -21.348951
14 1 -20.303448 23.187126 -22.116894
15 1 -18.865557 22.256375 22.117360
16 1 -23.627314 -24.061005 22.523321
17 1 -23.942856 24.043933 -23.208928
18 1 -17.031175 -22.143149 -0.322424
19 1 -16.712730 -20.002461 0.412731
20 1 -17.473888 -20.488719 -2.485511
21 1 19.084658 -18.589966 13.303593
22 1 20.565882 -19.705520 14.812723
23 1 20.274742 -16.900843 9.508586
24 1 19.185554 -23.202856 6.795754
25 1 21.602590 -23.033852 6.532554
26 1 15.415095 -19.048343 1.660995
27 1 21.984088 -15.239686 -0.651353
28 1 5.224162 -0.455828 12.914219
29 1 5.237289 -1.409205 12.611014
30 1 7.842193 -0.381233 12.904646
31 1 5.053352 0.654999 15.569353
ITEM: TIMESTEP
103
ITEM: NUMBER OF ATOMS
32
ITEM: BOX BOUNDS pp pp pp
-24.218291063497695 24.218291063497695
-24.218291063497695 24.218291063497695
-24.218291063497695 24.218291063497695
ITEM: ATOMS id type xs ys zs
0 1 8.278582 -14.706482 6.971477
1 1 6.990498 -16.077496 4.680192
2 1 5.393094 -15.702349 6.752601
3 1 4.491047 -15.121761 4.256247
4 1 6.587661 -13.818747 2.977132
5 1 9.271640 -10.455710 1.191120
6 1 13.089052 4.143343 10.964324
7 1 11.671028 -0.454582 13.904609
8 1 14.389920 0.702877 13.272130
9 1 14.788423 -0.442609 10.212083
10 1 16.124303 1.191298 11.215339
11 1 18.016780 1.810407 9.197981
12 1 -2.536510 9.899849 23.393461
13 1 -3.483832 11.044022 21.566850
14 1 -3.518165 9.338520 23.067677
15 1 -5.927594 7.432810 -23.806501
16 1 -3.881893 8.716647 -23.299615
17 1 -3.892355 10.613985 -22.483608
18 1 -22.631283 -22.568916 -15.271045
19 1 -23.651254 -22.048756 -17.210591
20 1 20.076047 -23.500825 -14.644766
21 1 23.013227 10.474195 -9.900311
22 1 21.037691 12.372203 -10.532502
23 1 22.417124 15.400606 -7.599640
24 1 12.618248 3.182424 -9.391356
25 1 11.640496 4.260186 -8.323799
26 1 13.696074 1.124395 -7.604957
27 1 15.961205 11.893718 -13.969481
28 1 15.121031 -0.405092 11.696197
29 1 13.055556 -1.789897 14.430675
30 1 15.447172 -0.692684 11.152466
31 1 12.823965 0.504196 11.325857
ITEM: TIMESTEP
104
ITEM: NUMBER OF ATOMS
32
ITEM: BOX BOUNDS pp pp pp
-24.218291063497695 24.218291063497695
-24.218291063497695 24.218291063497695
-24.218291063497695 24.218291063497695
ITEM: ATOMS id type xs ys zs
0 1 4.505673 -13.572851 -2.525924
1 1 2.883080 -17.163023 -1.127230
2 1 3.569147 -15.532355 -2.290895
3 1 2.221982 -14.364984 -0.281789
4 1 3.180911 -15.697524 0.792246
5 1 3.074580 -15.880277 4.055629
6 1 4.927999 0.064780 16.075425
7 1 4.729647 1.499672 13.024259
8 1 2.224467 1.315600 12.989362
9 1 3.255013 -0.819833 13.296828
10 1 4.906211 -1.691421 15.624154
11 1 0.998321 -2.406073 13.744323
12 1 -2.929291 6.671569 1.434860
13 1 -4.872250 5.492858 1.762229
14 1 -5.053677 2.195875 1.931579
15 1 -4.435532 -3.367973 2.068087
16 1 -4.461256 -3.892799 -0.639089
17 1 -8.384147 -7.920473 -0.672595
18 1 -23.172703 7.774505 -16.147767
19 1 -22.864347 5.691854 -14.973273
20 1 -20.751002 8.869892 -18.502145
21 1 -22.762557 12.379154 -21.752497
22 1 -23.210791 13.928781 -18.982567
23 1 22.337116 10.369779 -19.763405
24 1 11.201464 2.274454 -9.465076
25 1 13.901906 1.767411 -10.802814
26 1 9.343904 -1.705649 -10.587439
27 1 22.303523 3.496134 -16.930239
28 1 4.927340 -0.918854 11.594459
29 1 5.381671 0.848351 12.708863
30 1 2.156944 -0.583491 12.197492
31 1 2.786425 1.296178 15.848659
ITEM: TIMESTEP
105
ITEM: NUMBER OF ATOMS
32
ITEM: BOX BOUNDS pp pp pp
-24.218291063497695 24.218291063497695
-24.218291063497695 24.218291063497695
-24.218291063497695 24.218291063497695
ITEM: ATOMS id type xs ys zs
0 1 17.530364 -0.140460 10.667347
1 1 18.211928 -0.141047 6.568452
2 1 16.454583 1.814415 7.359532
3 1 18.741026 5.073455 7.498914
4 1 12.869890 7.255981 8.939084
5 1 15.310342 4.588861 11.130768
6 1 7.610716 15.119336 12.977985
7 1 7.564795 12.557911 7.194278
8 1 6.191550 13.566525 4.601028
9 1 4.203400 12.220506 8.707858
10 1 5.002167 11.799914 11.076349
11 1 6.052127 8.940353 12.944158
12 1 5.723830 -5.802874 6.255583
13 1 3.002503 -0.383498 4.591340
14 1 2.752917 -1.888095 3.177004
15 1 0.280778 -2.008264 3.357375
16 1 -0.367877 0.892876 5.781388
17 1 -0.278888 -0.854458 6.090090
18 1 15.587360 4.268547 -8.697943
19 1 16.997911 2.288462 -8.838057
20 1 16.186050 3.915160 -5.904434
21 1 12.981119 -4.651382 -13.530381
22 1 14.385193 -2.565163 -14.082241
23 1 16.547323 1.525048 -14.631061
24 1 19.546417 2.331489 -14.917753
25 1 20.674068 1.160325 -13.550672
26 1 21.440241 6.430603 -9.424005
27 1 18.787192 2.395259 -11.682793
28 1 5.485918 13.321122 8.975442
29 1 5.657517 12.988079 9.534221
30 1 5.133260 11.544133 9.409255
31 1 5.583329 13.805278 6.011740
ITEM: TIMESTEP
106
ITEM: NUMBER OF ATOMS
32
ITEM: BOX BOUNDS pp pp pp
-24.218291063497695 24.218291063497695
-24.218291063497695 24.218291063497695
-24.218291063497695 24.218291063497695
ITEM: ATOMS id type xs ys zs
0 1 -3.441074 2.395403 10.698332
1 1 -0.646512 1.276438 8.395905
2 1 -3.186008 2.112945 5.727392
3 1 0.122054 2.325361 6.441881
4 1 2.220304 4.992033 7.301409
5 1 6.483389 4.326762 8.004654
6 1 19.947125 9.711870 9.817901
7 1 21.660867 6.885698 7.068430
8 1 20.365992 5.978267 9.733519
9 1 19.562087 3.595673 6.590742
10 1 22.428191 2.314272 9.763593
11 1 -20.830121 0.686369 10.130305
12 1 -23.730129 -5.012036 1.248675
13 1 -23.514374 -5.346009 2.322764
14 1 22.814153 -7.139413 1.369311
15 1 22.802638 -5.535930 -1.069766
16 1 20.725148 -6.189414 -4.069373
17 1 19.044769 -7.716179 -3.012380
18 1 -17.196314 -2.734536 -14.306944
19 1 -16.732832 -4.814604 -15.502116
20 1 -18.888145 -5.738942 -16.715010
21 1 -21.492829 -2.251573 -5.568662
22 1 -23.796577 -2.320051 -5.871899
23 1 -19.272161 3.463613 -6.101640
24 1 20.795984 -7.943562 -6.147886
25 1 20.389968 -8.908065 -6.519346
26 1 -23.507222 -6.325765 -11.127849
27 1 -15.074329 -5.708227 -10.547342
28 1 19.034133 6.548095 8.645102
29 1 19.951418 6.991431 7.338869
30 1 18.708436 4.289806 6.516261
31 1 19.551471 4.288681 10.090587
ITEM: TIMESTEP
107
ITEM: NUMBER OF ATOMS
32
ITEM: BOX BOUNDS pp pp pp
-24.218291063497695 24.218291063497695
-24.218291063497695 24.218291063497695
-24.218291063497695 24.218291063497695
ITEM: ATOMS id type xs ys zs
0 1 -1.106859 14.194514 9.555066
1 1 -2.007312 10.986006 11.443293
2 1 -2.810449 8.806014 11.290526
3 1 0.244495 3.735640 10.933099
4 1 2.413834 3.923159 10.661804
5 1 1.739237 3.429409 8.158761
6 1 11.854347 8.096263 11.306346
7 1 15.488172 8.520467 10.336742
8 1 13.606909 7.730606 8.327967
9 1 12.646122 5.882233 8.516888
10 1 10.517529 6.479643 8.791170
11 1 11.360922 7.539893 10.884278
12 1 11.940779 -1.634141 -0.471977
13 1 10.928539 1.755083 -1.291443
14 1 9.679211 3.319408 -0.159025
15 1 7.272728 5.875580 0.665379
16 1 10.700958 7.687812 0.236080
17 1 11.043046 12.079495 3.568338
18 1 -14.968867 6.449949 -6.050812
19 1 -17.346976 6.871377 -3.803184
20 1 -20.783880 6.259677 -6.984448
21 1 -20.510405 -7.868914 -16.255573
22 1 -22.230346 -7.922474 -14.019263
23 1 -23.108724 -10.087719 -7.015395
24 1 -12.682133 -8.368592 -23.550121
25 1 -11.925439 -8.002040 -22.151958
26 1 -11.685315 -4.757398 -21.441480
27 1 -21.438589 -3.656816 -9.897383
28 1 10.477031 7.479825 8.437441
29 1 15.304620 8.134020 8.454502
30 1 12.442204 7.028100 7.899203
31 1 14.746211 7.768775 7.426817
ITEM: TIMESTEP
108
ITEM: NUMBER OF ATOMS
32
ITEM: BOX BOUNDS pp pp pp
-24.218291063497695 24.218291063497695
-24.218291063497695 24.218291063497695
-24.218291063497695 24.218291063497695
ITEM: ATOMS id type xs ys zs
0 1 -7.371740 14.166062 -6.445688
1 1 -4.999808 11.813891 -6.944620
2 1 -2.285454 11.089313 -6.513289
3 1 -2.011024 11.904136 -12.743516
4 1 -7.678511 14.313395 -14.011161
5 1 -9.038045 15.436902 -15.306175
6 1 22.766911 -5.576820 10.057742
7 1 22.642791 -8.523561 10.012661
8 1 22.811827 -10.731340 8.712735
9 1 -23.044102 -10.106909 8.196774
10 1 -21.677427 -8.426708 12.487027
11 1 -23.108131 -5.038421 12.987399
12 1 13.743217 0.460740 12.205387
13 1 11.540408 0.635763 10.009948
14 1 9.766113 0.986926 12.338218
15 1 12.350649 -1.296474 13.648362
16 1 14.207093 1.439082 12.819806
17 1 11.549307 1.555511 13.580559
18 1 -13.779014 14.984914 -10.898214
19 1 -12.663648 13.828360 -10.764022
20 1 -18.069917 14.172054 -4.019452
21 1 -2.061739 3.457427 -11.455932
22 1 -1.283058 3.622140 -9.593215
23 1 -4.891370 5.237523 -9.252895
24 1 -4.192961 9.262009 -3.607652
25 1 -5.128096 10.522561 -5.868270
26 1 -8.088173 13.382183 -8.515388
27 1 -12.312917 6.854038 -9.823817
28 1 -22.886357 -9.453506 8.782899
29 1 23.008190 -9.080641 9.105688
30 1 -22.887399 -8.839159 9.227459
31 1 24.091364 -10.579157 9.305772
ITEM: TIMESTEP
109
ITEM: NUMBER OF ATOMS
32
ITEM: BOX BOUNDS pp pp pp
-24.218291063497695 24.218291063497695
-24.218291063497695 24.218291063497695
-24.218291063497695 24.218291063497695
ITEM: ATOMS id type xs ys zs
0 1 -14.321693 15.891092 19.099919
1 1 -12.598057 15.867704 18.077608
2 1 -14.021484 15.071301 20.303466
3 1 -17.902537 15.331693 20.465425
4 1 -19.807746 16.491392 -23.499530
5 1 -18.210476 16.136630 -21.260046
6 1 -22.067556 -10.540350 10.886414
7 1 -23.796329 -11.584394 10.789485
8 1 22.928479 -11.050176 12.479315
9 1 22.334414 -13.113608 11.461882
10 1 22.423912 -14.804038 9.971100
11 1 -23.653450 -11.974489 8.157072
12 1 1.761193 -4.498066 7.221893
13 1 3.388970 -6.865671 6.880500
14 1 3.500307 -9.978545 4.295546
15 1 -0.181572 -9.837531 3.415846
16 1 0.044550 -7.273940 3.472021
17 1 -1.763064 -9.564351 4.858577
18 1 21.210159 7.499037 -16.126564
19 1 21.563148 7.362556 -15.261486
20 1 21.232207 2.669507 -18.116769
21 1 -19.619980 -12.601045 -12.394217
22 1 -17.575736 -10.540529 -11.763858
23 1 -19.582554 -7.449313 -11.929426
24 1 -18.321331 4.726887 -11.185015
25 1 -19.446388 6.011981 -12.560906
26 1 -15.502428 -0.381488 -12.077232
27 1 -22.454183 4.818897 -14.706049
28 1 -23.404411 -11.077684 11.943125
29 1 23.918903 -10.741779 12.532400
30 1 23.127724 -13.428593 11.701947
31 1 23.125243 -12.747643 13.224608
ITEM: TIMESTEP
110
ITEM: NUMBER OF ATOMS
32
ITEM: BOX BOUNDS pp pp pp
-24.218291063497695 24.218291063497695
-24.218291063497695 24.218291063497695
-24.218291063497695 24.218291063497695
ITEM: ATOMS id type xs ys zs
0 1 -5.130375 23.327235 16.488005
1 1 -7.430265 22.417066 18.376348
2 1 -9.533614 23.189443 17.368446
3 1 -10.373554 20.628353 20.020057
4 1 -12.728981 20.261208 21.669683
5 1 -15.684290 20.693980 19.398270
6 1 -21.846831 -18.319526 16.744264
7 1 -21.195734 -17.031782 16.325725
8 1 -23.414172 -16.752762 17.323499
9 1 -23.981659 -18.033390 16.197422
10 1 22.787208 -16.160182 14.974835
11 1 22.803089 -12.690042 19.197695
12 1 16.079347 3.319265 11.332950
13 1 12.882914 2.979312 9.441275
14 1 13.296845 0.649711 10.873111
15 1 13.531647 -2.212800 13.132297
16 1 11.931310 -1.355985 17.338986
17 1 10.804925 -3.451040 18.037948
18 1 -17.506796 -6.890802 -1.637439
19 1 -15.813340 -7.322609 -2.851186
20 1 -20.458634 -8.968042 -2.423386
21 1 11.514861 7.277155 -10.843678
22 1 13.082914 5.342646 -11.036876
23 1 12.903027 8.478173 -12.100340
24 1 20.960995 8.492983 -16.789426
25 1 19.597261 7.440326 -15.790076
26 1 18.596286 3.629407 -11.314317
27 1 17.331992 1.581354 -12.784065
28 1 -23.925409 -15.005884 16.499841
29 1 -22.169496 -17.827575 15.761147
30 1 24.117809 -17.537499 17.610779
31 1 24.082599 -15.074233 16.883733
ITEM: TIMESTEP
111
ITEM: NUMBER OF ATOMS
32
ITEM: BOX BOUNDS pp pp pp
-24.218291063497695 24.218291063497695
-24.218291063497695 24.218291063497695
-24.218291063497695 24.218291063497695
ITEM: ATOMS id type xs ys zs
0 1 7.862046 1.743090 -16.645922
1 1 11.398960 4.233030 -17.253350
2 1 10.683139 6.787652 -16.232305
3 1 7.030735 5.786602 -21.392699
4 1 8.631162 4.885679 24.032469
5 1 5.558958 5.045188 23.772233
6 1 -19.057735 -14.763472 -20.037236
7 1 -18.766147 -19.685830 -21.336767
8 1 -20.299827 -19.189097 -23.961444
9 1 -20.276148 -23.423905 -24.054832
10 1 -22.059838 -22.397074 -23.253664
11 1 23.412471 21.367950 -23.238347
12 1 16.793255 1.860215 19.128922
13 1 11.375820 2.150193 19.539953
14 1 10.764476 0.049796 16.041077
15 1 8.322967 -2.189068 17.615173
16 1 9.390158 -3.683993 14.919624
17 1 5.710729 -3.763925 12.511440
18 1 15.502556 -4.767705 -9.285815
19 1 16.939564 -2.803694 -9.388907
20 1 17.180966 2.795449 -11.058779
21 1 -23.842931 5.120854 -18.205895
22 1 23.165778 3.824633 -17.043847
23 1 22.117634 -1.204739 -13.202922
24 1 21.253054 -3.184936 3.010760
25 1 22.162856 -1.144521 3.434587
26 1 23.821111 -1.683016 -2.156162
27 1 18.430957 -6.399226 -6.105520
28 1 -17.486627 -20.726456 23.458141
29 1 -18.205611 -21.361281 -22.392427
30 1 -20.601200 -21.319348 24.028593
31 1 -18.552706 -18.526209 -22.873087
ITEM: TIMESTEP
112
ITEM: NUMBER OF ATOMS
32
ITEM: BOX BOUNDS pp pp pp
-24.218291063497695 24.218291063497695
-24.218291063497695 24.218291063497695
-24.218291063497695 24.218291063497695
ITEM: ATOMS id type xs ys zs
0 1 1.297653 2.268521 15.644169
1 1 2.301964 2.395666 15.603797
2 1 1.668457 3.657186 14.616428
3 1 4.391168 5.998855 13.173463
4 1 4.896881 3.503670 15.884920
5 1 7.269744 -2.701185 16.427973
6 1 -19.999957 -22.847920 11.687763
7 1 -22.607713 -23.515556 17.460959
8 1 23.874382 -21.792282 17.710186
9 1 -21.237108 -21.469601 18.725923
10 1 -19.783361 -19.400449 22.024318
11 1 -22.185713 -20.495249 20.925059
12 1 9.640287 -12.979061 14.642856
13 1 11.771396 -12.984123 13.365722
14 1 9.632769 -14.020631 14.669616
15 1 7.655206 -17.120331 16.008656
16 1 5.200481 -16.036846 15.379485
17 1 7.482615 -16.049087 18.646564
18 1 -20.172115 7.845779 -10.433661
19 1 -21.047409 6.688625 -10.532039
20 1 -18.745043 10.872439 -12.931010
21 1 -18.848590 18.168569 -9.669256
22 1 -16.459831 16.968951 -10.292244
23 1 -18.712005 14.354920 -11.502381
24 1 -13.508561 5.035399 -9.155589
25 1 -16.137521 6.650026 -9.812419
26 1 -14.918443 2.946441 -10.094236
27 1 -18.581984 1.332716 -14.814893
28 1 -23.266618 -19.814985 16.955654
29 1 -22.979813 23.535860 16.355714
30 1 -21.261366 -19.786194 17.481228
31 1 23.301159 -20.906120 17.656487
ITEM: TIMESTEP
113
ITEM: NUMBER OF ATOMS
32
ITEM: BOX BOUNDS pp pp pp
-24.218291063497695 24.218291063497695
-24.218291063497695 24.218291063497695
-24.218291063497695 24.218291063497695
ITEM: ATOMS id type xs ys zs
0 1 11.572382 -3.711616 13.474212
1 1 8.763765 -3.793225 19.721486
2 1 8.676784 -4.499298 18.298555
3 1 10.782432 -2.966556 19.134014
4 1 11.730095 -4.642098 20.288917
5 1 8.784113 -6.109571 17.086185
6 1 23.038854 -19.898225 -23.493517
7 1 -23.699120 -20.229477 -23.571109
8 1 -22.566040 -22.104891 -23.559448
9 1 -19.614504 21.963268 -20.696918
10 1 -17.130825 20.045266 -22.029627
11 1 -12.727049 21.264640 23.606395
12 1 12.993651 23.718636 -21.785042
13 1 14.785845 20.454236 -23.060503
14 1 14.620008 23.812343 -23.060035
15 1 10.101271 -23.456158 -23.216038
16 1 12.579202 -21.245964 21.753962
17 1 11.286032 -19.320484 19.093627
18 1 -20.696414 -4.367802 -11.870226
19 1 -19.788092 -3.147983 -10.200119
20 1 -19.363663 0.954634 -13.879054
21 1 -8.076764 5.063169 -21.900164
22 1 -8.379822 4.390634 -19.344179
23 1 -10.347038 7.252056 -22.035122
24 1 -5.823912 0.602573 -13.252824
25 1 -3.838873 1.943954 -14.116347
26 1 -7.797511 -0.814338 -12.030727
27 1 -12.985298 2.578556 -18.056995
28 1 23.931724 -20.575179 22.279351
29 1 23.085963 -16.476084 19.670962
30 1 23.602253 -20.092107 -21.747637
31 1 -22.372947 -20.573610 24.028199
ITEM: TIMESTEP
114
ITEM: NUMBER OF ATOMS
32
ITEM: BOX BOUNDS pp pp pp
-24.218291063497695 24.218291063497695
-24.218291063497695 24.218291063497695
-24.218291063497695 24.218291063497695
ITEM: ATOMS id type xs ys zs
0 1 3.511395 -23.496416 20.223023
1 1 5.129333 24.050758 20.011331
2 1 1.611753 24.008265 20.855990
3 1 3.618389 23.604126 16.603762
4 1 2.170618 21.656449 17.469585
5 1 1.304256 22.776921 12.546009
6 1 22.464575 -17.663247 -20.833599
7 1 22.355301 -15.389422 -22.323061
8 1 21.338744 -14.680293 -20.403231
9 1 19.567536 -12.060639 -20.078515
10 1 19.239675 -9.787542 -18.212759
11 1 18.278872 -7.407466 -17.624822
12 1 -22.102083 19.704828 10.559460
13 1 -21.503018 21.492757 9.437761
14 1 -21.635452 22.745730 7.197220
15 1 23.771194 -23.556807 4.998346
16 1 22.009131 -23.809189 5.571316
17 1 23.515891 21.947414 5.194046
18 1 -19.001267 14.785811 -13.350817
19 1 -18.543414 12.179076 -12.494597
20 1 -19.600760 6.716413 -13.384814
21 1 -15.960946 1.221118 -4.950930
22 1 -17.183318 2.994298 -7.153799
23 1 -18.899641 6.048849 -5.051973
24 1 -17.655620 10.762536 -18.479444
25 1 -15.883952 11.806498 -16.255066
26 1 -14.273085 12.714113 -9.682319
27 1 -14.308378 6.393093 -8.455898
28 1 21.896051 -12.091205 -21.972428
29 1 20.640109 -12.477564 -20.436958
30 1 24.065795 -14.614469 -21.824874
31 1 21.400688 -14.701057 -19.096039
ITEM: TIMESTEP
115
ITEM: NUMBER OF ATOMS
32
ITEM: BOX BOUNDS pp pp pp
-24.218291063497695 24.218291063497695
-24.218291063497695 24.218291063497695
-24.218291063497695 24.218291063497695
ITEM: ATOMS id type xs ys zs
0 1 -0.637481 -6.962245 18.341713
1 1 -2.936879 -9.335977 19.899627
2 1 -5.126331 -10.553584 19.218261
3 1 -3.692958 -12.557634 17.225755
4 1 -1.177471 -12.862626 11.684430
5 1 -3.715660 -15.673247 11.360194
6 1 22.487783 -10.519278 18.906809
7 1 -23.580600 -11.779285 19.562484
8 1 23.746262 -11.461594 21.755421
9 1 24.147777 -9.224322 24.054027
10 1 23.889011 -7.408660 22.109835
11 1 21.207891 -11.303663 20.269202
12 1 21.485749 -9.693491 -2.265746
13 1 22.536941 -11.820838 -1.682314
14 1 -23.688029 -13.114509 -3.359377
15 1 -24.105676 -13.311136 -0.390277
16 1 -22.997389 -11.376760 -1.020414
17 1 -20.155218 -11.770623 0.064979
18 1 -14.291060 23.557588 -3.759039
19 1 -11.174026 23.235317 -3.475377
20 1 -14.045959 -23.662540 1.069264
21 1 -19.895695 13.532211 -9.351428
22 1 -20.599813 12.889101 -7.300507
23 1 -22.953643 14.315068 -3.799726
24 1 21.712156 23.686393 -8.813931
25 1 19.779182 22.935949 -9.014065
26 1 22.567282 -22.257339 -7.154416
27 1 -18.547019 -21.449615 -4.595418
28 1 -24.099803 -9.405812 20.272630
29 1 -23.721455 -7.613586 22.230283
30 1 -23.602200 -10.487715 21.572004
31 1 -23.364313 -10.840893 22.200940
ITEM: TIMESTEP
116
ITEM: NUMBER OF ATOMS
32
ITEM: BOX BOUNDS pp pp pp
-24.218291063497695 24.218291063497695
-24.218291063497695 24.218291063497695
-24.218291063497695 24.218291063497695
ITEM: ATOMS id type xs ys zs
0 1 3.716924 -13.471323 -5.433548
1 1 8.255499 -15.483166 -9.296460
2 1 10.891716 -15.268895 -10.950934
3 1 11.277885 -14.804568 -14.130603
4 1 15.136137 -15.024292 -11.868953
5 1 15.673415 -12.859965 -8.976098
6 1 -8.576729 -7.603930 20.239641
7 1 -8.654609 -7.880164 22.932326
8 1 -6.486078 -6.477850 23.099526
9 1 -4.503049 -7.998076 -23.791255
10 1 -2.357258 -8.761197 21.667107
11 1 -3.459867 -11.252316 22.862852
12 1 6.557245 4.899703 8.359556
13 1 7.730119 1.547302 9.989998
14 1 9.877254 1.504647 8.448262
15 1 10.158295 3.809918 4.823908
16 1 5.724761 -0.276325 4.698853
17 1 9.248336 -0.377687 5.633263
18 1 21.467470 -16.587904 -8.284124
19 1 21.131279 -14.183040 -7.255719
20 1 17.846635 -13.208033 -11.336355
21 1 -16.041210 22.945408 -6.255417
22 1 -14.620824 22.285442 -5.237921
23 1 -18.718042 22.493797 -4.760867
24 1 13.995537 20.331403 22.566132
25 1 15.112885 18.408286 23.553440
26 1 20.932419 16.166485 23.938673
27 1 -23.950501 23.170178 -12.929142
28 1 -7.823884 -6.741557 -22.991864
29 1 -5.392910 -8.544558 -23.140772
30 1 -7.457671 -6.411778 22.810048
31 1 -6.827496 -4.447217 22.305941
ITEM: TIMESTEP
117
ITEM: NUMBER OF ATOMS
32
ITEM: BOX BOUNDS pp pp pp
-24.218291063497695 24.218291063497695
-24.218291063497695 24.218291063497695
-24.218291063497695 24.218291063497695
ITEM: ATOMS id type xs ys zs
0 1 8.246367 -19.967447 -7.001555
1 1 9.272229 -19.566665 -4.134738
2 1 6.499369 -19.520336 -4.860023
3 1 4.127313 -23.835726 -7.314572
4 1 3.722942 -20.101888 -4.853184
5 1 2.583349 -17.603743 -4.005052
6 1 -9.268062 -9.442109 -17.504605
7 1 -8.704407 -13.189809 -16.153535
8 1 -6.482645 -11.584119 -17.846295
9 1 -6.395338 -10.314218 -17.223018
10 1 -7.816986 -11.312859 -16.150369
11 1 -8.268771 -10.059607 -20.631922
12 1 -7.456560 13.364081 17.089629
13 1 -7.908367 14.950208 18.734308
14 1 -7.488708 14.688373 15.704526
15 1 -6.500815 11.582797 17.765174
16 1 -9.929703 13.469485 14.334180
17 1 -10.373180 10.624858 11.837335
18 1 18.261558 4.353307 3.242947
19 1 17.624027 1.992655 5.014790
20 1 17.281060 4.562333 8.010664
21 1 18.640029 -10.888653 -11.485022
22 1 19.476260 -12.885954 -10.912363
23 1 16.717437 -9.865472 -10.976514
24 1 -23.502303 -2.832268 -2.255582
25 1 22.919638 -3.499918 -1.250572
26 1 17.480027 -8.528592 -2.815868
27 1 13.958651 -2.798930 -4.795866
28 1 -6.685025 -12.692777 -19.164496
29 1 -4.137661 -10.380858 -18.709328
30 1 -9.783389 -14.771094 -17.888521
31 1 -7.415228 -8.970624 -17.341499
ITEM: TIMESTEP
118
ITEM: NUMBER OF ATOMS
32
ITEM: BOX BOUNDS pp pp pp
-24.218291063497695 24.218291063497695
-24.218291063497695 24.218291063497695
-24.218291063497695 24.218291063497695
ITEM: ATOMS id type xs ys zs
0 1 10.468074 23.596931 -5.441248
1 1 10.567240 21.077896 -5.333254
2 1 10.278416 23.366234 -7.533106
3 1 9.682802 19.097166 -6.852427
4 1 6.197722 22.025135 -6.400555
5 1 6.352569 23.980257 -5.452090
6 1 -0.129244 -8.424857 15.653530
7 1 -3.186392 -12.933763 15.203207
8 1 -5.818625 -12.438573 15.486999
9 1 -1.973256 -11.477008 14.719893
10 1 0.721853 -11.657841 12.956756
11 1 1.640451 -14.021899 13.194814
12 1 -16.628135 8.753658 12.249432
13 1 -15.334466 3.760162 10.798591
14 1 -17.292698 3.653150 10.128523
15 1 -18.737051 1.525587 9.864776
16 1 -19.531525 -3.975235 9.775337
17 1 -20.788398 -6.171479 12.032614
18 1 17.860693 -14.050133 -13.763782
19 1 19.753855 -15.517347 -14.551535
20 1 23.654550 -20.860822 -12.989009
21 1 23.616101 -10.533042 -10.108827
22 1 -22.545145 -10.867475 -9.544477
23 1 23.277165 -10.121199 -7.739356
24 1 20.058807 0.630871 -14.231745
25 1 17.678195 1.137875 -14.970420
26 1 18.918017 -2.860184 -12.701280
27 1 24.087413 -11.508422 -14.498065
28 1 -4.897791 -11.826700 14.915929
29 1 -2.631731 -11.947485 13.776900
30 1 -1.908637 -11.587088 14.108405
31 1 -7.159671 -13.593074 14.580836
ITEM: TIMESTEP
119
ITEM: NUMBER OF ATOMS
32
ITEM: BOX BOUNDS pp pp pp
-24.218291063497695 24.218291063497695
-24.218291063497695 24.218291063497695
-24.218291063497695 24.218291063497695
ITEM: ATOMS id type xs ys zs
0 1 5.003272 -21.195379 9.607835
1 1 1.366622 23.994816 4.513516
2 1 2.896444 23.942254 5.921458
3 1 -1.012310 -23.200850 7.403630
4 1 -0.247253 -23.820046 5.657543
5 1 -1.172066 22.182100 6.938848
6 1 4.434873 -1.938787 22.630090
7 1 3.855369 -3.010543 21.734642
8 1 3.588572 -0.601053 20.867803
9 1 5.501911 -2.603117 23.115588
10 1 8.810273 -3.362404 23.314101
11 1 7.749582 -2.853701 -22.040875
12 1 -21.190300 -5.809990 -10.702578
13 1 -21.940253 -6.343674 -6.225630
14 1 -20.579750 -6.000276 -6.113653
15 1 -13.673803 -4.266997 -4.589232
16 1 -11.772703 -2.457435 -6.306181
17 1 -15.790982 -5.612285 -5.171830
18 1 17.481125 -7.232779 -18.689812
19 1 19.010057 -6.048729 -19.968281
20 1 15.100017 -9.139000 -15.080854
21 1 17.145937 -19.110093 -7.974818
22 1 16.213606 -19.475863 -7.422518
23 1 16.695358 -14.743436 -6.951707
24 1 17.821034 -4.634596 -14.452368
25 1 18.286813 -5.234155 -11.493046
26 1 23.545563 -3.755537 -10.667219
27 1 21.873096 -8.313601 -9.570135
28 1 2.129192 -3.209205 21.259042
29 1 5.325975 -3.737341 21.510936
30 1 3.806515 -4.116343 20.053729
31 1 1.508843 -2.479013 21.853206
ITEM: TIMESTEP
120
ITEM: NUMBER OF ATOMS
32
ITEM: BOX BOUNDS pp pp pp
-24.218291063497695 24.218291063497695
-24.218291063497695 24.218291063497695
-24.218291063497695 24.218291063497695
ITEM: ATOMS id type xs ys zs
0 1 -6.504672 -16.668766 9.393322
1 1 -8.045723 -17.402196 8.802986
2 1 -5.231010 -16.576629 7.220668
3 1 -6.581142 -16.710920 9.673780
4 1 -8.542259 -15.640878 3.732767
5 1 -9.132743 -14.776627 1.129751
6 1 -3.377470 -18.872279 13.949433
7 1 -3.753132 -20.269708 16.217501
8 1 -1.647786 -18.370797 18.636099
9 1 -3.743565 -16.054797 17.489456
10 1 -3.675683 -15.094076 19.785224
11 1 -5.360398 -14.554705 17.329557
12 1 -20.441925 -6.299328 18.094065
13 1 -18.998954 -8.533810 19.861228
14 1 -16.941669 -9.770972 20.606454
15 1 -20.548324 -10.356474 21.360123
16 1 -21.761230 -13.420819 17.556001
17 1 -20.142777 -16.048788 15.705678
18 1 12.049543 18.793516 -22.987454
19 1 12.356158 17.556417 -22.128408
20 1 9.234914 16.283451 -21.606260
21 1 -19.053863 -21.745209 -16.431460
22 1 -20.455464 -21.384480 -13.548663
23 1 23.464870 -21.376438 -13.534962
24 1 13.248153 -16.071627 -17.714623
25 1 12.212957 -16.568395 -20.193056
26 1 10.964685 -9.873146 -19.308225
27 1 18.760802 -19.715853 -11.816605
28 1 -2.625447 -19.100470 19.758145
29 1 -2.539835 -15.437635 19.265774
30 1 -4.088996 -19.815990 20.172245
31 1 -1.794837 -18.785308 17.995442
ITEM: TIMESTEP
121
ITEM: NUMBER OF ATOMS
32
ITEM: BOX BOUNDS pp pp pp
-24.218291063497695 24.218291063497695
-24.218291063497695 24.218291063497695
-24.218291063497695 24.218291063497695
ITEM: ATOMS id type xs ys zs
0 1 7.020453 22.562414 15.800505
1 1 7.358902 -22.225029 13.422694
2 1 4.242805 -20.232623 12.801817
3 1 3.506716 -19.777497 9.041581
4 1 -0.448930 -20.403941 8.865333
5 1 -1.362195 23.615485 6.654116
6 1 -10.059528 -12.293452 12.575701
7 1 -10.672982 -14.170551 12.487002
8 1 -7.257397 -12.910763 12.568160
9 1 -5.972836 -12.109468 14.672736
10 1 -5.308054 -12.118490 13.164192
11 1 -6.047399 -9.466497 14.690230
12 1 19.324327 -23.262919 14.307959
13 1 22.947834 -22.049879 12.201870
14 1 22.436481 -24.192496 13.561668
15 1 19.278618 -21.695166 9.114601
16 1 20.923861 -22.966390 9.759807
17 1 17.509114 -20.620635 8.575630
18 1 11.158609 19.181293 -21.069084
19 1 11.846465 18.809448 -22.527396
20 1 13.091841 21.573340 -22.415283
21 1 -23.768613 -23.937312 -16.511862
22 1 -23.556486 -23.104524 -15.116560
23 1 20.352102 22.222260 -15.680288
24 1 16.642514 -22.370738 -19.073424
25 1 18.923489 -23.884241 -16.447990
26 1 15.618017 -21.345910 -19.000730
27 1 10.951157 23.014976 -20.991354
28 1 -10.178350 -14.237717 14.851702
29 1 -5.631656 -14.029978 15.028602
30 1 -10.792028 -13.079241 15.016458
31 1 -6.247741 -11.377831 12.920131
ITEM: TIMESTEP
122
ITEM: NUMBER OF ATOMS
32
ITEM: BOX BOUNDS pp pp pp
-24.218291063497695 24.218291063497695
-24.218291063497695 24.218291063497695
-24.218291063497695 24.218291063497695
ITEM: ATOMS id type xs ys zs
0 1 7.996529 -14.649188 -22.015381
1 1 5.404824 -17.673464 23.892025
2 1 6.664363 -16.940732 21.986587
3 1 3.616917 -19.291210 23.255408
4 1 1.873528 -18.214361 23.423639
5 1 4.486392 -21.658537 22.520888
6 1 -11.730472 23.592537 12.732170
7 1 -7.872240 -22.040001 15.782742
8 1 -6.307281 -20.983820 16.717562
9 1 -5.599726 -20.498351 13.920984
10 1 -6.179569 23.925677 14.014542
11 1 -3.984984 -22.746848 13.480254
12 1 -22.344149 -18.437974 5.829610
13 1 22.794425 -20.892998 5.273851
14 1 20.446122 -19.648175 7.180262
15 1 17.664023 -23.424390 9.768170
16 1 18.056804 -19.994636 9.613527
17 1 14.112593 -23.682793 5.752062
18 1 11.829022 13.252638 22.474597
19 1 14.218996 11.999710 22.284923
20 1 11.040530 9.344241 23.695232
21 1 -23.219634 -14.698746 -15.634883
22 1 22.817588 -16.705938 -15.287586
23 1 23.739774 -20.453818 -17.420510
24 1 20.704309 13.138161 -20.632009
25 1 22.648883 13.316989 -21.266126
26 1 18.647134 15.729311 -15.502347
27 1 18.021112 18.792722 23.694145
28 1 -4.362647 -20.092495 13.666308
29 1 -4.565504 -19.423144 12.593758
30 1 -5.887256 -20.826730 15.901310
31 1 -6.700413 -19.582958 16.541619
ITEM: TIMESTEP
123
ITEM: NUMBER OF ATOMS
32
ITEM: BOX BOUNDS pp pp pp
-24.218291063497695 24.218291063497695
-24.218291063497695 24.218291063497695
-24.218291063497695 24.218291063497695
ITEM: ATOMS id type xs ys zs
0 1 -6.466494 -18.998838 22.576426
1 1 -3.868923 -21.493637 21.795503
2 1 -5.630066 -23.865445 21.587521
3 1 -3.083734 -22.546977 20.728568
4 1 -2.827481 -23.080707 17.646638
5 1 -8.071273 -23.563533 16.956527
6 1 -4.152416 -23.466767 8.144512
7 1 -1.730908 -23.420917 5.519316
8 1 -2.558283 -21.803364 7.781748
9 1 -0.991548 -20.444079 7.763599
10 1 -0.448530 -17.323161 8.416672
11 1 -1.934294 -17.395893 10.846259
12 1 16.021589 -6.585384 21.734709
13 1 13.794181 -4.575329 23.024913
14 1 16.442046 -5.375017 22.417944
15 1 12.008522 -2.928331 18.737860
16 1 10.518939 -2.102013 17.858115
17 1 9.958178 -0.512470 18.344628
18 1 -19.446110 -19.982387 10.875566
19 1 -21.698771 -21.427043 11.410750
20 1 23.721248 -21.627649 12.087388
21 1 20.377170 22.254522 6.006425
22 1 19.740776 21.295194 7.335148
23 1 14.018966 16.230805 6.745510
24 1 17.439610 -20.735083 17.761319
25 1 19.505008 -21.475639 17.509425
26 1 18.635463 -23.745451 19.995562
27 1 21.120670 14.943293 13.646516
28 1 -0.926394 -21.793148 5.576480
29 1 0.145234 -19.535412 7.459932
30 1 -1.065983 -23.724145 3.942851
31 1 -1.604076 -21.468508 8.305948
ITEM: TIMESTEP
124
ITEM: NUMBER OF ATOMS
32
ITEM: BOX BOUNDS pp pp pp
-24.218291063497695 24.218291063497695
-24.218291063497695 24.218291063497695
-24.218291063497695 24.218291063497695
ITEM: ATOMS id type xs ys zs
0 1 21.720523 -8.157064 20.992609
1 1 19.041385 -10.415815 20.946741
2 1 18.159647 -10.189378 18.777158
3 1 16.439952 -11.324374 18.380836
4 1 17.404342 -12.164935 19.866468
5 1 15.661546 -12.451443 20.263540
6 1 9.496700 -7.377143 23.127949
7 1 5.890393 -5.935008 21.597705
8 1 6.131282 -5.584190 19.224506
9 1 4.122015 -8.807316 20.479079
10 1 5.667618 -8.046811 19.448789
11 1 4.927847 -10.294301 17.335326
12 1 4.965760 -3.448848 -12.485062
13 1 4.627458 -4.930716 -16.810351
14 1 3.551926 -6.276636 -19.060949
15 1 6.531315 -5.238793 -14.257820
16 1 6.094843 -8.279864 -18.225471
17 1 7.242582 -5.661877 -16.746298
18 1 18.865124 24.100460 12.373039
19 1 15.596909 23.225809 12.369470
20 1 15.295871 -23.960032 9.011883
21 1 18.736792 22.402631 11.928488
22 1 20.007649 22.493241 14.682700
23 1 19.789135 -23.027241 15.598619
24 1 14.508155 -9.305758 19.682377
25 1 16.581020 -8.368875 18.330515
26 1 14.639335 -11.733962 9.473786
27 1 -24.102270 -22.867412 10.192995
28 1 5.271143 -8.002352 21.093025
29 1 3.834778 -8.339567 20.308769
30 1 6.130094 -4.563171 21.687087
31 1 6.356254 -6.774097 20.150729
